27
liquid_04_1: target O0-H1...O3 from snap_04.xyz, R=2.631 angle=150.4, 7 env waters
O   0.00000000  0.00000000  0.00000000
H  -0.32259500  0.29416900  0.85183800
H  -0.73217400  0.14881300 -0.59833800
O  -1.52058100  0.23411200  2.13411700
H  -1.46432300  0.05060100  3.07187500
H  -2.32137300 -0.20715800  1.85084300
O  -3.90805900 -0.82613300  1.68533800
H  -3.92294800 -1.48854100  2.37615300
H  -4.75066000 -0.92311000  1.24166000
O   2.62350400  0.33982100  0.24017200
H   2.69715200  1.09881000 -0.33839800
H   1.73052300  0.02203200  0.10665700
O  -2.39574800  0.46811800 -1.18543800
H  -2.70036900  1.34847200 -0.96540600
H  -3.16620800  0.03134200 -1.54855100
O  -0.75200500 -0.56953400  4.61854800
H  -1.29915800 -0.89166000  5.33485100
H  -0.49921600 -1.35708100  4.13678100
O  -2.64600200  2.97569500  2.02237600
H  -2.90425900  3.25138200  1.14286900
H  -2.61512800  2.02016700  1.97498100
O   0.60176500 -0.06495700 -3.00853500
H  -0.09941500  0.03645400 -2.36487800
H   0.26848300 -0.71612100 -3.62590000
O  -0.91346700 -2.85958600  1.03325300
H  -1.00726200 -3.03498200  1.96955900
H  -0.49009800 -2.00214800  0.99094300
