33
liquid_03_0: target O0-H2...O3 from snap_03.xyz, R=3.009 angle=151.2, 9 env waters
O   0.00000000  0.00000000  0.00000000
H  -0.43168700 -0.83387200  0.18583700
H   0.04634300  0.03859000 -0.95529900
O  -0.65835900 -0.53203600 -2.88767700
H  -0.46711400 -1.44830300 -3.08796000
H  -0.14998400 -0.03511100 -3.52865400
O   0.74444200  0.90961800 -4.65576800
H   0.45303700  1.36107400 -5.44791800
H   1.10770500  0.08205000 -4.97105000
O  -2.85813700  0.82757800 -3.62482700
H  -3.00254400  1.71001200 -3.28323000
H  -1.91813700  0.68049100 -3.51996300
O  -0.19011800 -2.93435900 -4.10165200
H  -0.86745000 -2.80713300 -4.76593000
H  -0.01490000 -3.87529500 -4.11471300
O   2.55555800 -0.67907900  1.08812600
H   2.63987500 -1.54718300  0.69377100
H   1.65414400 -0.41701700  0.90102200
O  -1.52160500 -2.59365500 -0.15450500
H  -2.04014800 -2.52726700  0.64732900
H  -2.13770000 -2.38490000 -0.85670200
O   0.63371900  2.16087500 -2.05438700
H   0.15416900  2.97211300 -1.88658700
H   0.68609700  2.10604000 -3.00857900
O  -1.62121300  0.92334300  2.44131200
H  -2.39820500  1.22833500  1.97280700
H  -0.94797700  0.84670900  1.76521200
O  -3.49777200 -2.03141600 -2.25841700
H  -3.65317300 -1.25940600 -2.80255200
H  -4.00151000 -2.72758900 -2.68010600
O   1.22440900  2.98357100  0.71723400
H   0.77645000  2.27679100  0.25244800
H   1.93646700  3.24207400  0.13210000
