33
liquid_01_0: target O0-H2...O3 from snap_01.xyz, R=2.679 angle=145.8, 9 env waters
O   0.00000000  0.00000000  0.00000000
H   0.12538200 -0.43341300  0.84419400
H  -0.17143900 -0.71448800 -0.61347100
O  -0.62325500 -1.16035200 -2.33263000
H  -1.40012000 -0.72613100 -2.68500100
H   0.09910000 -0.56927000 -2.54489800
O  -1.88946500  1.91198800 -0.18709900
H  -2.20730600  2.13882900  0.68683000
H  -1.13886200  1.33959000 -0.02839100
O   1.62188000  0.19672000 -3.24656800
H   1.76796900  0.18577900 -4.19249100
H   1.44292800  1.11451600 -3.04197300
O   1.08855200 -0.45600400  2.54429500
H   1.88220900 -0.97141100  2.40043100
H   0.64150900 -0.89985400  3.26497600
O   2.59920700  1.12239900  0.27181300
H   2.85637200  0.83888700 -0.60552300
H   1.71663100  0.77075200  0.38858000
O  -1.00325100 -3.94359900 -3.19635100
H  -0.93295700 -3.01341900 -2.98174500
H  -1.77952900 -4.00342800 -3.75316600
O  -3.05797200 -0.23550600 -3.89253800
H  -2.98362000 -0.63738500 -4.75809900
H  -3.18139000  0.69684600 -4.07063400
O  -0.73187700 -2.79620900  0.95593600
H  -1.00744400 -3.44274400  0.30610000
H  -0.05177600 -3.24003500  1.46260400
O   1.71955400 -3.06990300 -1.18872100
H   1.56531400 -3.97894400 -1.44579400
H   2.43937800 -3.11726000 -0.55956100
O  -3.58834400 -0.33646100 -1.11760400
H  -3.46436500 -0.55107900 -2.04215800
H  -2.70278100 -0.19350700 -0.78357700
