27
liquid_03_1: target O0-H1...O3 from snap_03.xyz, R=3.028 angle=167.3, 7 env waters
O   0.00000000  0.00000000  0.00000000
H  -0.21851200  0.88125200 -0.30311600
H   0.35864000 -0.43735600 -0.77222300
O  -1.12394000  2.67962400 -0.85018300
H  -1.13043500  3.45009800 -1.41812600
H  -2.04805000  2.45760300 -0.73634000
O  -0.75515400  4.83510300 -2.30823700
H  -1.46983500  5.45483400 -2.16196600
H   0.03203400  5.37893900 -2.33667500
O  -0.50532300  3.82848900  1.49177000
H  -1.15578600  4.51299100  1.33496900
H  -0.45512000  3.35092000  0.66373600
O   0.28288500  0.05078700 -2.66903400
H  -0.31677800  0.79685600 -2.66489000
H   1.15507200  0.44373300 -2.63563200
O   1.57778700  3.09661200 -1.69130900
H   1.37196700  3.14288600 -2.62497300
H   0.74558000  2.87649000 -1.27272700
O   1.12507300  0.17734000  2.62696500
H   0.83417700 -0.16328000  1.78104000
H   0.35664200  0.62324100  2.98322100
O  -2.05982900 -1.88668100  0.65413400
H  -2.00159200 -1.82774400  1.60774100
H  -1.90771700 -0.99237000  0.34868000
O  -3.53590100  1.18889200 -0.28100200
H  -4.40227600  0.94067200  0.04150800
H  -3.20299700  0.39896700 -0.70694400
