30
liquid_02_1: target O0-H2...O3 from snap_02.xyz, R=2.821 angle=158.9, 8 env waters
O   0.00000000  0.00000000  0.00000000
H   0.25233100 -0.14561700  0.91178700
H  -0.56895400 -0.73980300 -0.21263700
O  -1.08970100 -2.54104800 -0.55853100
H  -1.09023100 -3.21492900 -1.23832200
H  -1.66664300 -2.88675300  0.12254000
O   2.07801300 -1.17080700 -1.09206000
H   1.43991400 -0.56060400 -0.72231100
H   2.55285200 -0.65556100 -1.74419500
O   0.95449200 -0.58592200  2.38579900
H   1.09652200 -0.45310900  3.32304000
H   1.16363000 -1.50850600  2.23974500
O  -2.79270400 -3.22667600  1.41396800
H  -2.35936700 -3.16320600  2.26509800
H  -3.62770500 -3.65557600  1.60118200
O  -2.21000000  1.61362300  0.70005900
H  -2.87792900  0.93276600  0.61921300
H  -1.37951200  1.14800100  0.60147900
O   0.87580500 -3.24739000  1.37092900
H   0.16909200 -3.52846400  1.95212400
H   0.42803300 -2.87321100  0.61216500
O   0.15182600  1.68509700 -2.33954400
H   0.12087600  0.96465900 -2.96902100
H   0.05975700  1.26201700 -1.48587000
O  -0.56911900 -4.73308100 -2.47009200
H  -0.54797300 -5.27762300 -1.68316200
H  -0.85227600 -5.32694900 -3.16534400
O  -1.03611500 -5.65272100  0.26372300
H  -0.20740800 -5.83694400  0.70592100
H  -1.68488400 -6.16448600  0.74686700
