24
liquid_09_0: target O0-H1...O3 from snap_09.xyz, R=2.811 angle=170.9, 6 env waters
O   0.00000000  0.00000000  0.00000000
H   0.79382300  0.33933500 -0.41343600
H  -0.01399600  0.40966400  0.86499200
O   2.29981900  1.23394200 -1.04335200
H   2.23928400  2.18407100 -0.94424500
H   3.11799800  0.99865600 -0.60579500
O  -0.81114600 -1.69994400 -1.90032600
H  -0.62226300 -2.56707400 -1.54166200
H  -0.58040500 -1.09364400 -1.19648600
O  -0.05081700  1.08514800  2.52432600
H  -0.70519900  0.85705300  3.18462000
H  -0.33934800  1.93154200  2.18286100
O   4.64065400  0.66584600  0.34221700
H   4.09716200  0.28951800  1.03447800
H   5.22093900  1.27587700  0.79758900
O   1.53797000  0.15200500 -3.56703100
H   1.65805500  0.50286700 -2.68458700
H   1.91805400  0.81546800 -4.14286500
O  -2.67428800 -0.25730200  1.02822700
H  -1.85538600 -0.43149700  0.56423500
H  -2.49397000 -0.50580000  1.93485000
O   1.30281500  3.83607100 -0.00644300
H   0.69403600  3.97356200 -0.73219600
H   2.13936200  4.17231800 -0.32793800
