33
liquid_06_0: target O0-H1...O3 from snap_06.xyz, R=2.928 angle=164.2, 9 env waters
O   0.00000000  0.00000000  0.00000000
H  -0.16015000 -0.92585700  0.18268400
H  -0.30908600  0.12452200 -0.89732500
O   0.02028500 -2.83054000  0.74760300
H   0.36250300 -3.48920200  1.35199000
H  -0.90884500 -3.04380800  0.66119900
O   2.02281200  1.71067400  0.80033600
H   1.32082500  1.14827300  0.47299600
H   2.33452300  1.26996600  1.59080800
O  -1.00490200 -0.66482400 -2.52875400
H  -1.60947400 -1.29602000 -2.13847700
H  -0.42180800 -1.19518700 -3.07184600
O  -2.78083100 -3.27341900  1.09761800
H  -2.84561200 -2.37355700  1.41743800
H  -2.82482800 -3.19322300  0.14479900
O   1.63871400 -4.88758800  1.95279900
H   1.72706800 -5.58580300  2.60158300
H   2.22698900 -5.14406300  1.24259800
O   2.62578500 -1.64566800 -0.48418800
H   2.60127400 -2.17890900  0.31034700
H   1.94036400 -0.99021000 -0.35455200
O   2.75271500 -2.18705100  2.23495200
H   1.98617700 -1.61411500  2.25486000
H   2.39423900 -3.07054600  2.31959000
O   1.31373000 -4.40137900 -1.70257700
H   1.36037700 -3.88148100 -2.50492500
H   1.30149000 -3.75406800 -0.99754500
O   0.19873700 -0.79199900  3.26392300
H  -0.66526400 -0.71034400  2.86010800
H   0.03571800 -1.24860000  4.08925400
O  -2.44858800 -0.78563400  2.17262400
H  -2.90300900 -0.69036000  3.00967600
H  -2.72328800 -0.02380100  1.66234700
