27
liquid_08_1: target O0-H1...O3 from snap_08.xyz, R=2.845 angle=147.4, 7 env waters
O   0.00000000  0.00000000  0.00000000
H  -0.16878900 -0.67448000 -0.65789000
H  -0.78917500  0.54168300 -0.00370100
O  -1.05947100 -2.39967700 -1.10175100
H  -0.27825000 -2.87031200 -0.81118600
H  -0.92609700 -2.26987600 -2.04068400
O  -3.65172400 -2.56564500 -0.10428600
H  -3.85244100 -1.65035700 -0.29971400
H  -2.72995400 -2.66529800 -0.34228200
O   2.72640700 -0.38303000 -1.02889100
H   2.09324900 -0.26494500 -0.32079600
H   2.59258900 -1.28414500 -1.32268700
O  -0.35399600 -1.86275100 -3.94933600
H   0.39774900 -1.53370600 -4.44212500
H  -0.96118300 -2.17699500 -4.61926700
O   0.34891900 -4.29156600  0.74334400
H  -0.48692900 -4.31916000  1.20899300
H   0.99529500 -4.56546000  1.39404600
O  -2.39746300  1.51929900  1.00102900
H  -3.02946600  1.00769400  0.49599000
H  -2.28880300  1.02941100  1.81615700
O   1.56056900  0.46222900  2.65520100
H   0.90744300  1.07011300  3.00180600
H   1.07153200 -0.09685700  2.05146400
O   0.28283400 -5.31315900 -2.03810500
H   0.37417000 -4.86600600 -1.19671100
H  -0.65449900 -5.49143900 -2.11462600
