30
liquid_02_0: target O0-H2...O3 from snap_02.xyz, R=2.912 angle=162.9, 8 env waters
O   0.00000000  0.00000000  0.00000000
H   0.37580700 -0.31922000 -0.82042600
H   0.75684900  0.25665400  0.52682000
O   2.30854300  1.25234200  1.25700400
H   2.50243300  1.93742600  0.61724000
H   3.16734800  0.94474500  1.54695400
O   2.84294700  3.20632000 -0.57907200
H   2.98882800  4.11108800 -0.30276400
H   3.56421200  3.01966400 -1.18004400
O  -0.95363400  2.62738100 -0.58162100
H  -1.49616100  2.02679600 -0.07055100
H  -0.22055800  2.09091200 -0.88333700
O   4.75481200  0.24811300  2.51151300
H   4.52220100  0.25790500  3.43996800
H   4.77837600 -0.68031600  2.27979100
O  -0.43430700 -1.70234100 -2.48768900
H  -0.09183400 -2.59576000 -2.51498900
H  -1.33344900 -1.79947100 -2.17409500
O   0.25967600 -1.89002800  2.41807000
H   0.37267800 -1.37297700  1.62049800
H   0.39704000 -2.79520200  2.13874300
O  -2.68930700 -1.45652300 -0.55297000
H  -2.47629500 -0.63417500 -0.11183400
H  -2.06649200 -2.08917600 -0.19508000
O   2.01194700 -0.29540200  4.19026500
H   2.30732300 -0.38540200  3.28423800
H   1.99892500  0.64899500  4.34575000
O  -2.93632700  1.18514200  1.04943000
H  -2.50194900  0.77638000  1.79806900
H  -3.81233500  1.40138100  1.36893500
