30
liquid_04_0: target O0-H2...O3 from snap_04.xyz, R=2.966 angle=149.5, 8 env waters
O   0.00000000  0.00000000  0.00000000
H  -0.25825700  0.27568700 -0.87950700
H   0.03087400 -0.95552800 -0.04739500
O   1.12542100 -2.74158300  0.11174100
H   1.18167900 -2.92509400  1.04949900
H   0.32462900 -3.18285300 -0.17153300
O   2.64600200 -2.97569500 -2.02237600
H   2.32340700 -2.68152600 -1.17053800
H   1.91382800 -2.82688200 -2.62071400
O  -1.26205700 -3.80182800 -0.33703800
H  -1.27694600 -4.46423600  0.35377700
H  -2.10465800 -3.89880500 -0.78071600
O  -0.89253500  0.23017100 -2.49148000
H  -0.82073100  1.18101200 -2.40795700
H  -1.80922400  0.04026900 -2.29185400
O  -0.87295700  2.51732700  0.30699400
H  -0.59793100  2.63343000 -0.60246300
H  -0.62142400  1.61889200  0.52094900
O   1.89399700 -3.54522900  2.59617200
H   1.34684400 -3.86735500  3.31247500
H   2.14678600 -4.33277600  2.11440500
O  -2.40930200 -1.81297800  1.22953900
H  -3.24546300 -1.64437300  0.79521200
H  -1.91471900 -2.33978300  0.60176800
O   1.41446700  1.68421600  2.42164700
H   0.94253800  2.40126400  2.84515400
H   0.76427700  0.98709300  2.33501900
O   1.73253500 -5.83528100 -0.98912300
H   1.63874000 -6.01067700 -0.05281700
H   2.15590400 -4.97784300 -1.03143300
