18
liquid_01_1: target O0-H1...O3 from snap_01.xyz, R=2.923 angle=143.2, 4 env waters
O   0.00000000  0.00000000  0.00000000
H  -0.94058100  0.13408000  0.11645400
H   0.28148100 -0.43683700  0.80384900
O  -2.36933400  1.02471000  1.37224200
H  -2.62012600  0.90628500  2.28838100
H  -3.10498500  0.66851300  0.87407200
O  -0.87543900  3.16325200  0.91201900
H   0.01941900  2.97471300  1.19471200
H  -1.38091200  2.39943300  1.19006500
O   1.84993400 -0.87026000 -1.80527900
H   1.18529500 -0.47214400 -1.24314900
H   2.01233100 -0.21626600 -2.48509500
O   0.88531300 -1.27825000  2.28169200
H   0.51642300 -2.13749200  2.07710700
H   1.83223700 -1.41810300  2.28449100
O  -4.62770400  0.08405300 -0.09130700
H  -4.68996700 -0.86545400 -0.19519500
H  -5.52987100  0.39386000 -0.17097700
