27
liquid_09_1: target O0-H2...O3 from snap_09.xyz, R=2.666 angle=164.7, 7 env waters
O   0.00000000  0.00000000  0.00000000
H   0.22821800 -0.20533700 -0.90663300
H   0.74004600 -0.32443200  0.51313600
O   2.32036000 -0.71905800  1.09765300
H   3.14307700 -0.24433800  0.97928900
H   2.10662500 -0.60175100  2.02328100
O  -2.32383400 -0.32929000  1.20566100
H  -1.59840300 -0.35808400  0.58183900
H  -2.36529200  0.58577600  1.48345100
O   4.85699600  0.06829100  0.80379400
H   5.53162300 -0.60127600  0.91688800
H   4.87301900  0.26947400 -0.13188800
O   2.73554700 -3.21961200  0.07293800
H   2.70713000 -2.31330700  0.37959100
H   2.82573000 -3.74029400  0.87105400
O   1.21879100 -0.00014400 -2.55067500
H   0.65170300  0.39285600 -3.21414600
H   1.90787400 -0.43634400 -3.05180000
O   0.01055300  2.89750900  0.64746800
H   0.32737300  2.07260900  0.27950600
H  -0.64598900  2.63587000  1.29301500
O   1.47364800 -1.43845200  3.95526000
H   1.08068800 -2.31102400  3.93446200
H   2.34426800 -1.55822900  3.57590900
O   3.94621700 -2.20347700  3.27745400
H   4.46324900 -2.02174300  2.49267200
H   3.91738700 -3.15880200  3.32994500
