27
liquid_05_1: target O0-H1...O3 from snap_05.xyz, R=2.646 angle=177.3, 7 env waters
O   0.00000000  0.00000000  0.00000000
H  -0.94237600 -0.11207000  0.12490100
H   0.19833600  0.84099200  0.41185700
O  -2.59663300 -0.28639600  0.42239900
H  -3.22245700  0.13057900  1.01460400
H  -3.06203600 -0.35146900 -0.41150600
O  -1.24674500 -2.52243500  0.93107200
H  -0.73203600 -2.64804400  0.13387100
H  -1.80339200 -1.76732400  0.74085000
O   1.90960500 -0.39560400  1.93180800
H   1.31224000 -0.61265800  1.21607400
H   2.51825000 -1.13346100  1.96853700
O   0.72684100  2.47669100  1.02211600
H   0.95420600  2.25666500  1.92551300
H   1.55370200  2.41274100  0.54415900
O  -3.28112200  0.12020200 -2.29888400
H  -4.00935200  0.73807100 -2.36331700
H  -3.61950500 -0.69013100 -2.67978900
O  -3.74772300  1.46749900  2.50292900
H  -3.21663800  2.15480700  2.10070000
H  -4.58071700  1.89428100  2.70345200
O  -0.92867300  1.59387400 -2.40790200
H  -0.55893600  1.02839800 -1.72984400
H  -1.84474800  1.32389300 -2.47231600
O   0.31940200 -3.14544100 -1.09636900
H   0.20824000 -2.50980700 -1.80336500
H   0.51176300 -3.96993100 -1.54296300
