24
liquid_07_1: target O0-H1...O3 from snap_07.xyz, R=2.940 angle=150.9, 6 env waters
O   0.00000000  0.00000000  0.00000000
H  -0.33532200 -0.16203700 -0.88178000
H  -0.44463000 -0.64638800  0.54837700
O  -1.79458100 -0.88635300 -2.15408300
H  -2.71739000 -0.78930300 -1.91906000
H  -1.62240800 -1.82402300 -2.06827300
O   1.88201600  1.72838900  0.53224300
H   2.04612700  1.77021100  1.47434200
H   1.12462200  1.14946300  0.44604400
O  -1.63088500 -1.71787700  1.17544100
H  -1.30222600 -1.34630400  1.99406700
H  -0.99285500 -2.39327000  0.94523600
O  -4.11887400 -0.33245600 -0.94571600
H  -4.89343700 -0.87492500 -0.79735000
H  -3.73213400 -0.22358100 -0.07691900
O  -1.04328900 -3.53971000 -1.64850400
H  -0.47841000 -4.11540900 -2.16397900
H  -1.92189300 -3.90276600 -1.76020500
O   2.54993600 -1.35071900  0.15787100
H   2.38152800 -2.00121800 -0.52383400
H   1.77523300 -0.78857700  0.14981500
O  -0.45087000  0.72178900 -4.25044800
H   0.12105400  1.00651200 -3.53766000
H  -1.01193800  0.05415900 -3.85585300
