24
liquid_08_0: target O0-H1...O3 from snap_08.xyz, R=2.650 angle=163.9, 6 env waters
O   0.00000000  0.00000000  0.00000000
H  -0.91672600  0.07953600 -0.26366300
H   0.47268300 -0.15257800 -0.81824400
O  -2.57926700 -0.22650600 -0.56284200
H  -3.09284300  0.21824000  0.11145200
H  -3.14177800 -0.94157700 -0.86031200
O   1.43020100 -0.14740200 -2.19826800
H   0.85235200 -0.10574700 -2.96023100
H   2.05700000 -0.83917200 -2.40995200
O  -4.77659900 -1.27966500 -1.76779600
H  -4.08783200 -1.51906500 -2.38789300
H  -4.94633000 -0.35410700 -1.94320000
O   1.55869600  1.34265900  1.80564100
H   0.92669300  0.83105400  1.30060200
H   1.66735600  0.85277100  2.62076900
O  -3.92894600  1.04341600  1.47396500
H  -4.18267600  1.96630200  1.48558400
H  -4.71106500  0.57578800  1.76696100
O   0.30443500 -2.74228500  0.70032600
H   0.10371800 -1.82699700  0.50489800
H   1.22620500 -2.84193800  0.46233000
O  -3.61124100  2.87096500 -1.40709500
H  -3.79945600  3.59857600 -1.99987700
H  -2.87767100  2.41180300 -1.81609000
