27
liquid_05_0: target O0-H2...O3 from snap_05.xyz, R=2.658 angle=152.8, 7 env waters
O   0.00000000  0.00000000  0.00000000
H  -0.11116200  0.63563400 -0.70699600
H   0.19236100 -0.82449000 -0.44659400
O   0.88929200 -2.44977900 -0.52086900
H   0.14030700 -2.86451100 -0.94894600
H   1.22666900 -3.11935900  0.07416900
O  -1.56614700  0.62300600  2.02744100
H  -1.05143800  0.49739700  1.23024000
H  -2.12279400  1.37811700  1.83721900
O   2.52244100  0.43578900  0.99310000
H   2.68267100 -0.46256800  1.28208600
H   1.58620300  0.46093500  0.79546800
O   1.15834700 -4.73928400  0.97695700
H   0.85408300 -5.46398100  0.43063300
H   1.01404900 -5.03847600  1.87467300
O  -0.60515100 -4.04151600 -2.53041200
H  -1.32312200 -4.16716900 -3.15086400
H   0.16735300 -3.91139500 -3.08044600
O   0.03994700  1.66921400 -2.48705700
H  -0.44397200  2.31352900 -3.00369200
H  -0.23718200  0.82297600 -2.83821600
O  -0.72052800 -0.82419300 -2.87109900
H  -0.20465300 -1.58815600 -3.12890900
H  -1.61673900 -1.04234900 -3.12692400
O  -0.31940200  3.14544100  1.09636900
H  -1.26177800  3.03337100  1.22127000
H  -0.12106600  3.98643300  1.50822600
