24
liquid_07_0: target O0-H1...O3 from snap_07.xyz, R=2.730 angle=159.1, 6 env waters
O   0.00000000  0.00000000  0.00000000
H  -0.77789900 -0.22365200 -0.51096400
H  -0.02740900 -0.59302100  0.75087000
O  -1.80876500 -0.57922200 -1.96173700
H  -1.21350500 -0.50539600 -2.70769100
H  -2.63442900 -0.87869800 -2.34229500
O   0.14146500  2.41304400  0.92038500
H   0.96231300  2.27827900  1.39396600
H   0.03315300  1.61891100  0.39707600
O  -0.14480800 -1.42763800  2.27034800
H  -0.93886100 -1.73018400  1.82969400
H  -0.45997800 -1.00409800  3.06879200
O   0.28192000 -0.15172700 -3.85772400
H  -0.02029100  0.74724300 -3.98716000
H   0.89963100 -0.09464000 -3.12874800
O  -4.04733400 -1.56030200 -4.17620700
H  -4.61684000 -0.79682100 -4.08137800
H  -3.64479900 -1.45386400 -5.03810500
O   1.81981800 -2.70931700 -0.52043900
H   2.00392500 -3.33853500  0.17700100
H   1.19867500 -3.16005800 -1.09249300
O  -2.84920400  1.56744800  0.95380600
H  -1.89844600  1.59064700  1.06221500
H  -3.01760200  0.74902100  0.48684500
