30
liquid_00_0: target O0-H2...O3 from snap_00.xyz, R=2.905 angle=142.0, 8 env waters
O   0.00000000  0.00000000  0.00000000
H   0.39235000 -0.85723900  0.16563600
H   0.36194700  0.27059200 -0.84380400
O   2.16897500  0.71490100 -1.79573100
H   2.66977000  1.52364700 -1.68911700
H   2.57822900  0.09751700 -1.18944900
O   3.57398100  3.05481300 -1.70933400
H   3.41500800  3.30351700 -2.61988600
H   4.51976600  3.14943400 -1.59633100
O  -2.38314700  0.97239300  1.01695500
H  -1.66541700  0.70342500  0.44358600
H  -2.19401500  0.54759600  1.85362000
O   4.21214800 -1.07610600 -1.06665500
H   4.68639400 -0.42005400 -0.55585300
H   4.67174900 -1.89675500 -0.88907300
O   1.75142900  1.12566400  1.90966000
H   1.36729800  0.78121000  2.71590200
H   1.32387900  0.63176200  1.21002200
O  -1.15948200  0.49981600 -2.56752500
H  -1.49963100  1.39154600 -2.64066200
H  -0.33655500  0.51603800 -3.05615600
O   0.91532100 -2.72184400  0.33645900
H   1.45187600 -3.17377700  0.98768800
H   1.03723700 -3.22707900 -0.46734800
O   0.95048800 -0.07441100 -4.33204700
H   1.72974200 -0.21430800 -3.79406500
H   0.64723300 -0.95599300 -4.54903000
O   3.59391600 -1.70427400 -3.70046700
H   3.77070000 -2.64248700 -3.76928900
H   3.92837700 -1.45970600 -2.83759100
