27
liquid_00_1: target O0-H1...O3 from snap_00.xyz, R=2.862 angle=164.5, 7 env waters
O   0.00000000  0.00000000  0.00000000
H  -0.16999300 -0.93519900  0.11285700
H  -0.46240800  0.41739000  0.72677100
O  -0.99369500 -2.67538600  0.20883500
H  -1.92913300 -2.66165900  0.41131800
H  -0.63401000 -3.35245500  0.78192900
O   0.29951100 -4.74878500  1.17876800
H   1.20710400 -4.52996300  1.39000700
H   0.36032100 -5.29270500  0.39347500
O  -1.24284500  0.51825000  2.35969400
H  -0.95920000  0.14075000  3.19232300
H  -0.97985000  1.43718900  2.41084100
O  -3.72708900 -2.68111900  0.67403500
H  -4.08473400 -1.90764900  0.23806900
H  -3.62700400 -2.41642500  1.58844900
O   1.80827300 -0.05286900  2.29295400
H   1.46670200 -0.66796900  1.64394500
H   2.23896700 -0.60613600  2.94459100
O  -2.26734300  0.43357100 -1.86523700
H  -1.35974800  0.53770400 -1.57947600
H  -2.27004600  0.73981500 -2.77212200
O   2.77594000 -1.01662400 -0.50061900
H   3.28248100 -0.41314000 -1.04417700
H   2.05170700 -0.48782600 -0.16581800
O  -0.73104500 -2.64971700 -3.16119300
H   0.19206000 -2.89396600 -3.22791600
H  -0.83200000 -2.33629000 -2.26241400
