27
liquid_06_1: target O0-H2...O3 from snap_06.xyz, R=3.105 angle=148.3, 7 env waters
O   0.00000000  0.00000000  0.00000000
H  -0.22541600  0.43153100 -0.82413700
H   0.14067100  0.71857500  0.61651600
O  -0.73004100  2.41375500  1.81108800
H  -0.68239500  2.95039100  1.01989700
H  -1.60442900  2.58152000  2.16256100
O  -1.07283900  3.66276000 -0.58298900
H  -0.45271400  3.30484300 -1.21826100
H  -1.38018200  4.47750400 -0.98043400
O  -1.02158800  0.64729900 -2.49961700
H  -0.45957900 -0.08393700 -2.75588400
H  -0.52376400  1.42852500 -2.74063300
O  -2.43845200 -0.46507400  1.28406600
H  -1.76711500  0.02826100  0.81272900
H  -3.19157000  0.12485100  1.31621000
O   1.83585800 -2.21159900  0.02466300
H   1.47271400 -2.15246400  0.90832600
H   1.24033500 -1.69147500 -0.51483400
O   1.23048500  3.96750100  3.28787900
H   0.42028900  3.54616500  3.00101800
H   1.87906000  3.71222100  2.63181900
O  -3.18201000  2.96231800  3.30315700
H  -3.47800800  2.23413100  3.84938100
H  -3.12874800  3.70621100  3.90317200
O  -3.62741300  2.93345000  0.12665800
H  -2.69759900  2.85331700 -0.08607800
H  -4.02925000  3.26704200 -0.67551100
