351
Lattice="15.347809 0.0 0.0 0.0 15.347809 0.0 0.0 0.0 15.347809" Properties=species:S:1:pos:R:3 pbc="T T T" model=tip4pew T=300.0 t_ps=8.0
O -1.466539 -6.916145 8.185446
H -1.288149 -5.982490 8.298125
H -1.549534 -7.253949 9.077204
O 8.792038 -12.078136 -4.227409
H 8.964070 -12.976601 -4.509185
H 8.082054 -12.158173 -3.590424
O 4.660348 5.365229 -0.681250
H 4.792657 4.511931 -0.268203
H 5.498782 5.815042 -0.576718
O -6.386365 -0.401772 -10.713890
H -6.779481 -0.853975 -11.460352
H -5.485807 -0.226299 -10.986719
O 2.493648 -1.354974 1.853497
H 2.225729 -1.856627 2.623429
H 2.868376 -2.006648 1.260933
O -1.741811 -3.549462 -2.031452
H -1.288657 -3.068987 -2.724292
H -1.387568 -4.437157 -2.083806
O 1.352907 2.226520 2.636023
H 2.189079 1.788164 2.793800
H 1.576278 2.979923 2.089469
O -4.067427 -9.243372 3.105908
H -4.129690 -10.192879 3.002020
H -4.969594 -8.933565 3.026238
O 2.034593 1.599562 -1.521187
H 1.482232 1.349316 -0.780574
H 1.756959 2.489668 -1.737662
O -3.384442 5.048824 -1.291143
H -3.998407 4.336601 -1.112210
H -3.573281 5.703134 -0.618499
O 7.438080 2.172458 3.887578
H 6.725869 1.534248 3.928513
H 8.172133 1.741296 4.325182
O -6.524700 -8.651235 1.977099
H -7.040684 -7.999249 2.451342
H -6.999445 -9.472475 2.105220
O 8.670829 -3.965491 -1.320993
H 7.946943 -3.364723 -1.497905
H 8.246066 -4.786383 -1.072109
O -2.218998 -0.980930 6.744487
H -2.756173 -0.416563 7.300514
H -2.757867 -1.758782 6.600272
O 15.541913 4.420082 -4.932719
H 15.493778 3.483332 -5.123546
H 15.977275 4.798541 -5.696564
O -8.205003 -6.178677 -0.206307
H -8.042809 -7.120642 -0.257561
H -9.063970 -6.060645 -0.611863
O 8.095120 -5.330079 -5.080860
H 7.458372 -5.275430 -4.368261
H 7.639531 -5.808328 -5.773642
O -1.752794 -0.253833 4.116114
H -1.755351 -0.469487 5.048701
H -1.057826 -0.798040 3.745856
O -2.859495 -3.451078 1.769958
H -3.131468 -3.594080 2.676497
H -3.582581 -2.962483 1.376698
O 10.318907 -5.132303 8.002493
H 9.694490 -4.969894 7.295415
H 10.221639 -6.063994 8.199270
O -0.654162 -10.288428 -0.458569
H -0.532461 -9.375116 -0.199182
H -1.488575 -10.295567 -0.927544
O -7.773574 5.976129 4.614946
H -7.927814 5.067088 4.357873
H -7.053750 5.928772 5.244106
O -3.574984 0.631618 0.824960
H -3.802665 0.495384 1.744652
H -2.693922 1.004985 0.848610
O -0.922952 9.153258 -2.210598
H -0.067607 8.981419 -2.604411
H -1.545262 9.038297 -2.928752
O -3.850144 -11.800828 2.244918
H -4.351323 -11.771590 1.429936
H -2.951712 -11.980493 1.967841
O 1.997704 0.237888 -4.029442
H 1.798654 0.426396 -3.112340
H 1.623269 -0.629571 -4.182886
O 8.453888 10.168431 -9.272329
H 8.711053 9.884919 -10.149665
H 7.571312 9.816784 -9.155562
O -0.021969 1.740293 -5.295286
H 0.707840 1.328797 -4.832379
H 0.161744 1.582588 -6.221359
O -0.315162 9.183636 4.109234
H 0.579696 8.995097 4.391927
H -0.820635 8.419817 4.387280
O -9.140860 3.267984 -2.970245
H -9.310377 2.862550 -2.119881
H -9.523317 2.662475 -3.605318
O 3.513939 1.578032 6.352987
H 2.693676 1.257960 6.728424
H 4.066240 1.769439 7.110984
O 11.119181 10.483749 -2.431785
H 11.698078 11.215080 -2.216693
H 10.297913 10.688220 -1.984636
O 6.321239 4.836118 9.072840
H 5.935000 3.982776 8.875715
H 5.584772 5.369671 9.371453
O 3.281011 8.421694 -4.110856
H 2.822525 9.216107 -4.384589
H 3.445845 7.946950 -4.925521
O 1.203133 11.356724 14.977430
H 0.886542 12.248497 15.121456
H 0.560222 10.799953 15.416637
O 8.784608 -11.117808 8.639634
H 7.890795 -10.777620 8.679657
H 8.926732 -11.520440 9.496325
O 4.461061 -3.629554 1.147210
H 4.503659 -2.788165 0.692807
H 5.344563 -3.761617 1.491033
O 5.682873 13.803038 9.928524
H 5.040991 13.136966 9.682417
H 6.531066 13.393835 9.757197
O 11.791987 -8.221472 0.346531
H 11.570005 -8.455363 1.247780
H 12.605471 -7.722613 0.421474
O 2.796709 -6.537283 1.911129
H 2.871061 -6.939162 1.045568
H 2.673291 -5.604931 1.733033
O 3.965216 -4.389789 5.616568
H 3.647375 -4.162948 6.490497
H 4.715819 -4.962187 5.775276
O -1.434419 5.365495 7.637815
H -1.771534 6.193957 7.978750
H -0.482840 5.451956 7.694853
O -0.822153 -4.386375 -7.158149
H -0.162871 -3.778643 -7.493173
H -1.617441 -3.859263 -7.081323
O 8.168226 -1.227144 2.042187
H 8.948583 -1.549058 1.590914
H 7.907768 -0.450577 1.546872
O -3.924921 -3.510563 -5.240327
H -4.306290 -3.981240 -5.981443
H -4.010214 -4.114710 -4.502788
O 1.153928 7.240666 12.486697
H 1.952293 7.574997 12.077958
H 1.335188 6.314204 12.644948
O 9.875182 5.733526 -8.977182
H 10.665750 5.348723 -9.355548
H 9.592636 5.100754 -8.316880
O -10.101982 2.324176 -6.715361
H -10.597966 1.889962 -6.021322
H -9.405168 1.705840 -6.935229
O -8.333950 0.727351 -7.980356
H -8.167763 -0.187787 -8.206488
H -7.565603 1.197798 -8.303703
O 2.649894 -4.993967 -6.236735
H 2.071623 -4.351358 -5.825775
H 2.071540 -5.717438 -6.478247
O 2.593656 11.621486 3.476116
H 2.981491 11.305985 4.292373
H 3.343500 11.847660 2.925833
O -4.835729 -5.851098 3.308901
H -5.571498 -5.586865 2.756583
H -4.388293 -6.530092 2.803926
O -2.470505 0.807850 -19.409489
H -2.065554 0.777645 -18.542693
H -1.776847 1.125620 -19.987496
O -3.639070 -3.286868 6.680817
H -3.223509 -3.798381 5.986629
H -4.146172 -3.927139 7.179948
O 3.071001 -7.474448 -0.801031
H 2.396151 -7.463133 -1.479766
H 3.603957 -8.242864 -1.005300
O 3.843155 0.959511 2.234539
H 3.386896 0.137344 2.055369
H 4.463281 0.743039 2.930826
O 4.819054 1.050492 -3.999408
H 3.924891 0.827409 -3.740683
H 5.106272 0.309770 -4.533328
O -1.291826 2.963114 1.268785
H -1.046053 3.589512 0.588011
H -0.471700 2.766766 1.721635
O 5.854681 9.046032 5.803667
H 5.980063 8.612619 6.647861
H 5.683242 8.331544 5.190196
O -7.349465 -2.551488 -6.227823
H -6.960411 -2.315650 -7.069993
H -7.353028 -3.508677 -6.224750
O -1.809057 7.045094 4.569457
H -2.059849 6.926669 5.485596
H -2.544708 6.688897 4.071287
O 4.083807 4.112441 5.017066
H 3.983569 3.170893 5.157323
H 4.465072 4.185492 4.142119
O -6.782030 5.999423 11.840947
H -6.046647 6.589454 11.675701
H -6.509310 5.163964 11.461654
O -11.406788 13.779431 -0.713538
H -10.684113 14.086792 -1.260806
H -12.123511 14.386008 -0.899560
O -4.931697 -12.526586 -0.188375
H -4.433559 -13.325564 -0.015965
H -5.412754 -12.712982 -0.994646
O 4.452490 1.788911 15.011775
H 3.566748 1.851502 14.654319
H 4.323935 1.682298 15.954293
O -1.369198 -2.007940 -4.494594
H -2.037239 -2.580407 -4.871733
H -1.864144 -1.294710 -4.091402
O 4.998568 -3.942953 8.351570
H 5.396431 -4.807473 8.248895
H 4.119751 -4.121437 8.686318
O 2.266337 8.709571 4.686063
H 2.390316 8.494953 3.761509
H 3.151900 8.852525 5.020090
O -4.275465 3.604619 -10.238045
H -4.853800 3.215298 -9.582157
H -4.616517 3.290514 -11.075453
O -1.180034 7.142013 10.591293
H -1.730694 6.359934 10.554440
H -0.301734 6.808677 10.774890
O -14.787532 6.020384 3.197215
H -15.728113 6.154464 3.313669
H -14.506051 5.583547 4.001064
O -2.035926 2.744014 -8.127327
H -1.669011 3.568690 -7.808714
H -2.556440 2.992217 -8.891324
O 5.231426 -7.462129 3.471037
H 4.454561 -7.027908 3.118666
H 5.953781 -6.871047 3.258769
O 1.445590 4.742134 -9.868902
H 1.076700 3.882892 -10.073487
H 2.392514 4.602281 -9.866103
O -0.045879 -2.303015 -12.408969
H -0.888311 -2.496119 -12.820370
H 0.312462 -3.161006 -12.181647
O 0.067051 2.295676 -9.794938
H -0.700529 2.549590 -9.282512
H -0.271102 1.678884 -10.444131
O 2.410211 -10.197685 1.391936
H 1.745572 -9.799569 1.954066
H 2.572608 -9.543691 0.712120
O 6.324144 -2.024450 -9.296609
H 5.957517 -2.679332 -8.702516
H 7.269955 -2.165782 -9.255389
O -0.806451 -7.522890 0.211680
H -0.922529 -7.222773 -0.689812
H -0.718656 -6.718474 0.722991
O 4.701753 9.906849 -0.983185
H 4.075486 9.183378 -1.007922
H 4.367309 10.490595 -0.302289
O 3.404041 22.320185 8.647812
H 2.702032 22.815022 8.225258
H 3.948491 22.010335 7.924073
O 9.681937 -7.823130 8.282312
H 10.364771 -7.970265 8.936775
H 9.893508 -8.431085 7.573892
O -0.508057 -5.152920 1.591497
H -0.298121 -5.600686 2.411048
H -1.380634 -4.786490 1.734922
O -10.225005 -9.097986 6.759603
H -10.500572 -9.744521 6.109767
H -9.544904 -9.541812 7.266271
O -2.667077 -4.418784 4.385581
H -1.907914 -5.001750 4.378305
H -3.398320 -4.973605 4.114123
O 1.365064 -7.069140 7.509484
H 0.424540 -7.021051 7.680756
H 1.431539 -7.160652 6.558990
O -2.458039 -10.817632 -4.200407
H -1.583506 -11.136446 -4.423522
H -2.553774 -11.012171 -3.268087
O -8.010843 4.441713 -13.271998
H -8.939063 4.621536 -13.122653
H -7.872376 3.570477 -12.900507
O -4.240106 -14.591367 3.473923
H -4.040591 -13.767904 3.028576
H -3.465575 -14.769465 4.007416
O -3.866987 0.982681 -7.635289
H -3.292651 1.744426 -7.557081
H -4.119274 0.778872 -6.734709
O -8.900050 -7.867856 -4.654977
H -8.100406 -8.344430 -4.432092
H -9.525021 -8.115859 -3.973701
O -5.917799 -12.815379 -8.461627
H -6.103666 -12.267023 -7.699399
H -5.341947 -13.503231 -8.127732
O -6.284421 -2.169210 -8.733729
H -6.238300 -1.513900 -9.429915
H -5.502100 -2.706623 -8.857798
O 6.943233 -6.757781 -6.999847
H 7.736890 -7.273188 -7.143711
H 6.496190 -7.201631 -6.279166
O -8.710241 -3.431996 2.989084
H -8.252651 -2.605807 2.833347
H -9.100952 -3.330048 3.856946
O 5.339986 0.247388 -10.834645
H 5.830955 -0.412185 -10.344599
H 4.712516 0.598177 -10.202616
O -5.320109 8.396460 -4.284251
H -5.035069 8.746562 -3.440205
H -5.839080 9.100478 -4.673171
O -4.943293 1.012494 -4.943446
H -5.400838 0.198420 -4.733286
H -4.233905 1.061392 -4.302657
O -10.878476 5.430815 11.712505
H -10.192265 4.764811 11.754763
H -11.288714 5.407900 12.577035
O -5.646569 -1.591330 -4.311534
H -4.941452 -2.192160 -4.552463
H -6.366652 -1.818099 -4.899996
O 0.675338 0.466525 0.594751
H 0.739719 1.187908 1.220606
H 1.188428 -0.239194 0.988365
O 1.161088 4.343093 -2.358253
H 0.433723 4.670003 -1.828818
H 0.796200 4.254482 -3.238729
O 4.851430 5.102433 2.607316
H 4.921724 6.032613 2.821922
H 4.075152 5.042604 2.050501
O 7.476561 -6.105057 -12.790710
H 7.622650 -6.115998 -13.736633
H 7.297609 -5.187261 -12.586115
O -5.061904 -2.426708 -14.778879
H -5.146407 -1.511804 -15.047284
H -5.429037 -2.925757 -15.508533
O 1.224368 1.030837 7.777768
H 1.078252 0.094340 7.644147
H 0.861938 1.444461 6.994319
O -8.767746 12.661776 -2.784844
H -9.077543 11.991946 -3.394422
H -8.849378 13.483310 -3.269250
O -12.992573 -4.567558 -2.767543
H -12.049695 -4.435301 -2.668941
H -13.356355 -4.351029 -1.909051
O 0.052594 -1.364867 8.271838
H -0.370821 -1.380948 9.130147
H -0.605346 -0.989477 7.686664
O 1.398359 5.275588 -7.174948
H 2.208824 5.775564 -7.077986
H 1.496360 4.819352 -8.010697
O 5.361875 10.380928 -3.631696
H 5.073865 9.568650 -4.048213
H 5.075651 10.298745 -2.721996
O 1.517572 -2.709166 10.659590
H 0.591182 -2.471609 10.699581
H 1.699623 -3.109360 11.509845
O -0.756599 -16.183567 -1.242930
H -1.358384 -16.817461 -0.852719
H -0.332995 -15.762780 -0.494779
O -7.910650 6.325728 -0.544321
H -7.435263 6.271446 0.284711
H -7.229867 6.273754 -1.215190
O 9.059067 -0.290496 -1.331023
H 9.063616 -0.894808 -2.073329
H 8.167703 0.057759 -1.310537
O 6.331112 0.330719 -1.728030
H 5.751083 0.703306 -1.063969
H 5.991158 0.664579 -2.558211
