351
Lattice="15.070648 0.0 0.0 0.0 15.070648 0.0 0.0 0.0 15.070648" Properties=species:S:1:pos:R:3 pbc="T T T" model=tip4pew T=300.0 t_ps=16.0
O -2.836862 -2.459294 5.945935
H -1.961801 -2.844442 5.899441
H -2.687832 -1.559229 6.235599
O 7.899757 -12.258978 -2.858338
H 8.824592 -12.503673 -2.890549
H 7.556198 -12.719472 -2.092738
O 2.647950 7.114244 1.983140
H 3.209733 7.390275 2.707321
H 3.255755 6.908209 1.272961
O -4.313487 -0.102287 -10.716129
H -3.998664 -0.836638 -11.243241
H -3.831655 0.655300 -11.047989
O 1.642316 -0.579402 1.296186
H 0.964984 -0.452176 0.631908
H 1.817534 -1.520338 1.283125
O -0.847751 -5.615304 -3.448536
H -0.992486 -6.374305 -2.883558
H -0.117279 -5.871163 -4.011723
O 1.174075 1.822921 2.510161
H 1.365320 0.906654 2.309878
H 1.682450 2.319846 1.869184
O -5.561752 -6.049484 2.593738
H -5.625399 -6.985629 2.782984
H -4.923268 -5.991192 1.882983
O 0.787716 1.674076 -2.607567
H 0.472598 1.194242 -3.373525
H -0.002911 1.868703 -2.104317
O -4.805109 5.257116 -0.769855
H -5.703942 4.972680 -0.604245
H -4.898094 6.099397 -1.214994
O 7.858548 0.167106 3.982423
H 7.837367 0.877975 4.623084
H 8.786972 -0.048155 3.893409
O -7.330300 -12.913040 0.218445
H -7.985487 -13.212776 0.848620
H -7.634686 -12.046217 -0.050254
O 7.881739 -7.705749 0.210387
H 8.204896 -7.463404 1.078183
H 7.704807 -6.870190 -0.221780
O 0.001667 1.025544 9.576308
H -0.531038 0.370824 9.124868
H -0.009322 1.786056 8.995161
O 14.434718 5.622394 -5.215644
H 13.722033 5.835969 -5.817889
H 15.105389 5.222875 -5.769554
O -12.839588 -5.962285 -1.129321
H -13.749468 -6.065145 -0.850448
H -12.809836 -5.096601 -1.536674
O 4.502314 -5.715460 -6.767299
H 4.253610 -6.637544 -6.831635
H 5.312632 -5.720441 -6.257797
O 1.832434 2.354957 5.397838
H 1.400747 1.521085 5.583675
H 1.878777 2.393547 4.442539
O -3.369148 -1.996150 2.713485
H -4.072253 -2.617299 2.903350
H -3.049891 -2.252200 1.848185
O 9.563784 -3.186306 6.209135
H 8.964121 -2.440237 6.213279
H 10.435971 -2.793360 6.242537
O -1.403646 -9.186436 2.190377
H -0.865914 -8.767511 1.518381
H -2.280439 -8.827259 2.054521
O -9.200068 5.737527 2.727386
H -8.406154 6.017880 3.182727
H -9.319295 4.825481 2.992320
O -1.257533 2.293008 -1.017012
H -1.807449 1.512151 -1.080941
H -1.399624 2.614364 -0.126634
O -0.206113 11.813838 -8.607682
H 0.299688 12.345032 -9.222687
H 0.230282 10.961911 -8.611086
O -3.734568 -12.529983 2.454103
H -3.980698 -11.783934 3.000970
H -2.915418 -12.262271 2.037504
O 4.182658 2.582995 -5.663720
H 3.861226 2.770122 -4.781735
H 3.587009 1.912950 -5.999091
O 4.889063 6.511659 -14.818684
H 4.690879 5.648957 -15.182965
H 5.425807 6.328982 -14.047473
O -2.441441 6.521337 -6.963291
H -2.182417 7.391368 -7.266910
H -3.305571 6.650947 -6.572507
O -1.773648 10.421318 2.997071
H -2.089141 11.088879 3.606216
H -1.706591 9.626311 3.525938
O -6.147045 -1.859928 0.894960
H -5.631729 -1.058840 0.800411
H -5.830967 -2.254049 1.707977
O 4.929955 3.359777 4.141607
H 4.024759 3.659777 4.058832
H 4.897686 2.683345 4.818091
O 10.159054 10.500125 -1.331464
H 9.204005 10.504910 -1.267517
H 10.339303 10.711233 -2.247529
O 0.211221 3.278300 7.839150
H -0.565771 3.583292 7.370645
H 0.884457 3.201666 7.163050
O 7.221070 9.946874 -5.538345
H 7.279307 10.005811 -4.584738
H 7.373182 10.841185 -5.843799
O 3.778281 15.903757 15.554762
H 3.171266 15.189225 15.747661
H 4.416216 15.875813 16.267848
O 10.592879 -12.646114 9.416586
H 11.323352 -13.019926 9.909440
H 9.871622 -13.260309 9.553645
O 5.639000 -2.537406 1.113968
H 4.695987 -2.546284 1.277918
H 6.024860 -2.266227 1.946918
O 3.920813 14.231924 10.887856
H 3.560270 14.994483 10.435370
H 4.750250 14.058646 10.442611
O 11.346450 -8.375989 1.316076
H 11.580361 -7.470577 1.111757
H 11.028743 -8.734623 0.487417
O 2.740911 -3.320740 1.334839
H 1.883473 -3.740093 1.262892
H 3.198305 -3.570418 0.531918
O 6.554264 -4.138125 6.846794
H 5.703226 -4.561822 6.958359
H 6.971433 -4.621632 6.133756
O -4.774364 7.410264 10.275368
H -4.621353 7.605402 11.199890
H -5.162184 6.535148 10.275794
O -1.034290 -2.942982 -6.176848
H -0.603492 -3.060506 -7.023508
H -1.696847 -3.633164 -6.146848
O 11.803956 -2.658623 0.039957
H 12.366857 -2.975199 -0.666551
H 10.917429 -2.888847 -0.238069
O -2.988877 -5.027000 -5.414055
H -3.863168 -5.366779 -5.223275
H -2.451223 -5.321636 -4.678970
O 2.848145 7.507961 11.587307
H 3.644399 7.917225 11.248611
H 2.684099 7.953622 12.418395
O 6.403692 3.450985 -7.710232
H 5.624250 2.954897 -7.960431
H 6.716827 3.020759 -6.914566
O -6.295072 0.591396 -4.700709
H -6.945535 1.275898 -4.857510
H -6.244869 0.113827 -5.528743
O -5.789749 -3.237093 -6.192479
H -6.008261 -2.355841 -6.495595
H -5.431109 -3.674449 -6.964702
O 1.730157 -4.099105 -10.998504
H 1.709808 -5.055077 -10.954521
H 2.016363 -3.905977 -11.891264
O 5.356559 10.045627 3.586824
H 5.311045 10.689343 2.879865
H 6.115122 10.312588 4.106002
O -7.176385 -5.905017 5.173485
H -6.367586 -5.960011 4.664514
H -6.930950 -6.208210 6.047595
O -0.371588 -1.811924 -18.171138
H -1.175277 -1.807751 -18.691041
H 0.330369 -1.905323 -18.815161
O 0.310829 -0.238698 5.243333
H -0.207714 -0.172310 6.045167
H -0.305266 -0.029943 4.541136
O 1.858997 -9.904598 -1.687614
H 0.971152 -10.025750 -2.024194
H 2.142612 -9.067288 -2.054638
O -1.665338 0.323541 3.139421
H -1.820739 1.095551 2.595286
H -2.169076 -0.372632 2.717732
O 6.884765 2.462139 -5.388040
H 7.070172 2.649567 -4.467863
H 5.938791 2.319060 -5.417936
O -1.025703 3.182535 1.773011
H -1.170110 4.064969 2.114608
H -0.085703 3.035448 1.877875
O 2.862883 6.989301 8.262180
H 3.483462 6.415476 8.711444
H 2.668665 6.536894 7.441303
O -6.649852 -1.484793 -2.726440
H -6.828498 -1.212594 -1.826314
H -6.402724 -0.677137 -3.176832
O -4.347360 7.049884 5.329598
H -4.925963 6.912755 6.079696
H -4.146214 7.985498 5.349553
O 7.901031 4.286351 4.886732
H 8.260004 4.487855 5.750888
H 7.201055 3.656474 5.058552
O -7.744757 5.017473 14.162161
H -7.607214 5.914006 14.468006
H -8.087797 5.116835 13.274083
O -7.980251 10.811234 -0.525663
H -8.131847 11.610303 -0.020947
H -8.800782 10.323422 -0.454947
O -4.464402 -12.424888 -2.101587
H -3.601919 -12.820708 -2.226812
H -4.311089 -11.703521 -1.491377
O 2.576876 3.264575 15.812718
H 2.285471 3.716031 15.020568
H 2.940139 2.437007 15.497436
O 2.451451 0.389920 -6.047379
H 2.488132 -0.542078 -6.262475
H 1.518801 0.573803 -5.935213
O 3.293870 -3.365742 8.264391
H 3.572221 -4.280815 8.227064
H 2.948898 -3.183983 7.390211
O 1.537142 8.548205 4.765211
H 1.073682 7.737388 4.555418
H 2.462979 8.305502 4.752891
O -4.708085 3.479460 -8.237059
H -4.480376 3.013216 -7.432697
H -5.150665 4.273436 -7.937131
O 0.536361 8.032685 9.503223
H 1.438311 7.716138 9.453060
H 0.053489 7.317003 9.916582
O -18.856594 9.702222 5.520624
H -19.434324 10.446109 5.691186
H -18.322534 9.626873 6.311405
O -3.548173 4.480502 -10.718838
H -4.095235 5.265871 -10.706528
H -3.696714 4.071179 -9.866417
O 4.301137 -7.518630 4.084524
H 4.707354 -6.691930 3.824165
H 4.868292 -8.192960 3.710564
O -0.073896 6.343267 -10.583619
H -0.476789 5.746505 -9.952918
H -0.592248 6.235373 -11.381054
O 0.211351 -4.673219 -14.051291
H -0.450153 -4.628074 -13.360925
H -0.209809 -4.275988 -14.813566
O -1.586984 4.893996 -8.893134
H -2.133713 4.894190 -9.678831
H -2.014056 5.515357 -8.303429
O 2.466153 -10.554816 3.343451
H 1.986603 -9.743578 3.511251
H 2.518531 -10.609651 2.389259
O 5.744998 -2.048201 -6.473481
H 4.878623 -2.296421 -6.150971
H 6.077902 -2.838126 -6.899423
O 0.254481 -7.534906 0.738908
H 1.158862 -7.683626 1.014968
H 0.101538 -6.605365 0.908597
O 2.285075 11.430929 -2.211216
H 2.672369 12.303942 -2.147309
H 1.898769 11.403253 -3.086564
O -1.891535 24.223323 7.499193
H -2.348177 24.560426 8.269954
H -0.968056 24.217209 7.750949
O 8.656026 -6.703798 7.665884
H 8.283169 -6.131996 8.336892
H 8.538404 -7.588434 8.012027
O -3.194503 -5.683395 0.905457
H -2.709532 -5.259358 1.613431
H -3.362795 -4.982020 0.276185
O -12.013805 -9.732120 6.115072
H -12.461764 -10.438900 5.650286
H -11.301747 -9.473617 5.529938
O -5.755017 -3.168055 3.151252
H -5.586960 -4.096990 3.309579
H -6.665237 -3.039922 3.418295
O 0.909419 -5.635904 7.265078
H 0.903175 -6.282666 7.970693
H 1.259702 -6.108159 6.509758
O -0.708954 -10.062850 -2.556242
H -1.034047 -9.983294 -3.453023
H -0.867019 -10.977887 -2.323961
O -4.993971 0.711573 -14.112145
H -4.478038 1.388176 -13.673677
H -5.810254 1.150074 -14.352206
O -1.609429 -15.430014 8.014886
H -1.685144 -16.178278 8.607000
H -2.511955 -15.145285 7.871335
O -2.452939 1.601621 -3.878695
H -1.592899 1.740919 -4.275128
H -2.494365 0.658493 -3.720504
O -8.545193 -9.060315 -3.275245
H -8.809321 -8.153922 -3.117388
H -9.115775 -9.356515 -3.984423
O -6.913689 -15.628117 -7.042662
H -6.920184 -14.857643 -7.610605
H -7.837799 -15.850138 -6.928819
O -4.211962 -0.140481 -7.883788
H -4.417782 -0.094207 -8.817452
H -5.044169 -0.360603 -7.465206
O 8.450176 -9.860202 -7.179594
H 8.659881 -10.248089 -6.330007
H 7.507957 -9.996144 -7.279475
O -8.573077 -2.018487 3.770636
H -7.983655 -1.265546 3.814150
H -9.150948 -1.914898 4.526655
O 8.525745 1.598010 -8.500716
H 7.811064 2.217741 -8.354445
H 9.312933 2.141846 -8.529154
O -4.290111 7.700032 -2.104796
H -3.351676 7.573467 -2.244630
H -4.351306 8.520143 -1.614994
O -3.032571 -0.931076 -3.443079
H -3.609420 -1.688199 -3.544280
H -3.108749 -0.693140 -2.519058
O -10.304228 5.614087 9.878778
H -10.351500 4.852301 9.301128
H -10.741130 5.333097 10.682764
O -4.664676 -3.059753 -3.565514
H -4.955572 -3.400373 -4.411439
H -5.433107 -2.613852 -3.209258
O -0.124617 -0.512496 -0.694655
H 0.053828 -1.077232 -1.446627
H 0.040356 0.374007 -1.015791
O 2.668952 3.397218 -3.582301
H 2.095596 2.735985 -3.194659
H 2.598285 4.150009 -2.995323
O 5.770204 1.493247 2.349191
H 6.232262 0.830516 2.862534
H 5.420382 2.100790 3.000918
O 4.752923 -5.887523 -15.279726
H 3.812452 -5.927954 -15.453255
H 4.991524 -6.783085 -15.040417
O -1.079661 -3.944829 -16.553875
H -0.503907 -3.330011 -17.008560
H -1.050135 -4.739799 -17.086212
O 4.387992 1.675878 6.485964
H 4.472309 0.807774 6.091609
H 3.486578 1.937940 6.298860
O -7.745051 10.924868 -3.102911
H -7.971183 10.864091 -2.174794
H -7.396544 11.810209 -3.207531
O -16.610796 -7.633594 -1.890833
H -16.359067 -8.541008 -2.062484
H -16.302795 -7.463384 -1.000667
O 2.433748 -2.027904 5.738684
H 1.890726 -1.311034 5.410878
H 2.266458 -2.751306 5.134586
O -5.693501 4.782919 -4.469883
H -6.247553 4.750420 -3.690010
H -5.195980 3.965552 -4.445041
O 5.561228 8.419381 -2.759271
H 6.216326 9.055420 -3.046555
H 5.302898 8.718114 -1.887345
O 4.989343 -1.147550 5.876091
H 5.231578 -1.535060 6.717156
H 4.149087 -1.551334 5.658930
O 1.086888 -18.728348 -4.795502
H 1.724159 -19.070589 -5.422390
H 0.248832 -18.774778 -5.255653
O -6.517859 6.254383 2.961555
H -6.465424 5.625336 3.681127
H -5.815114 5.995990 2.365221
O 12.219382 0.087882 -0.969636
H 13.000269 -0.365718 -0.652312
H 11.662768 0.177253 -0.196056
O 3.691886 -1.334658 -1.414289
H 3.903585 -0.491107 -1.014494
H 4.028535 -1.267967 -2.307850
