351
Lattice="15.043257 0.0 0.0 0.0 15.043257 0.0 0.0 0.0 15.043257" Properties=species:S:1:pos:R:3 pbc="T T T" model=tip4pew T=300.0 t_ps=28.0
O -5.124809 -1.591793 6.747711
H -4.596559 -2.333966 6.453836
H -5.339784 -1.795689 7.657900
O 3.834872 -15.520254 -3.160871
H 4.041487 -15.225451 -2.273948
H 4.657722 -15.880190 -3.491924
O 1.861415 9.971063 3.336890
H 1.746279 9.823860 2.398110
H 2.293107 9.177406 3.653089
O -4.794727 0.039824 -12.705363
H -5.225486 -0.787722 -12.491247
H -3.915892 -0.044350 -12.335505
O -0.197533 -1.600664 -0.635140
H -1.007729 -2.022000 -0.922001
H 0.451042 -1.855944 -1.291200
O 2.352084 -7.380979 -8.268742
H 2.196636 -8.310495 -8.436277
H 1.685387 -6.929117 -8.786012
O 1.787170 3.118010 -0.880091
H 1.041184 2.543472 -0.707918
H 2.335826 2.623104 -1.488594
O -10.417300 -8.439207 -3.619296
H -10.957517 -7.796839 -3.159120
H -10.708970 -8.389953 -4.529644
O -3.938179 3.601570 0.509311
H -4.802115 3.206155 0.625471
H -3.732678 3.461964 -0.415087
O -3.675806 3.389578 -2.354663
H -4.505591 3.825837 -2.547969
H -3.722421 2.562133 -2.833613
O 5.597449 0.330545 3.655544
H 5.729107 0.476674 2.718770
H 6.449779 0.516371 4.049541
O -10.693909 -10.175803 0.044723
H -11.370819 -10.522826 -0.536310
H -10.922629 -10.515974 0.909710
O 2.306499 -2.867737 4.979306
H 3.191091 -2.515523 5.077667
H 2.407609 -3.606145 4.378671
O -3.227841 0.285755 8.934958
H -2.479781 0.859802 8.770314
H -3.940782 0.881037 9.166445
O 15.321102 1.240957 -4.398501
H 14.486264 1.153920 -4.858610
H 15.572789 0.342244 -4.185898
O -12.069287 -3.619544 -4.474576
H -11.213632 -3.901452 -4.151135
H -12.237384 -4.182183 -5.230494
O 7.298944 -9.173680 -6.039674
H 7.779837 -9.521287 -6.790769
H 7.085872 -9.944416 -5.513557
O -1.561647 2.370763 8.790797
H -1.773544 3.271515 8.545893
H -0.983246 2.062170 8.093334
O -2.088305 -3.632019 3.750219
H -1.300827 -3.088850 3.783038
H -1.975340 -4.171422 2.967585
O 10.561756 -7.361943 4.599215
H 9.846284 -7.934352 4.322304
H 10.302563 -7.057358 5.468857
O -1.044470 -10.002549 5.241908
H -1.498891 -9.907275 6.078960
H -1.319170 -9.240716 4.731631
O -6.666755 5.878332 4.033507
H -7.337389 6.560901 4.057618
H -7.020580 5.215079 3.440941
O -4.025551 6.463096 0.802721
H -4.907220 6.833067 0.757855
H -4.142482 5.537550 0.588422
O 1.484875 11.325873 -7.678660
H 1.843610 11.682124 -8.491449
H 2.152148 10.712806 -7.370234
O -2.676787 -15.158769 4.060879
H -1.870017 -15.619721 3.830929
H -2.407200 -14.248099 4.180191
O 2.945075 1.716326 -4.916659
H 3.250331 0.833714 -4.706788
H 2.008293 1.699186 -4.720758
O 6.913946 3.859257 -12.412353
H 6.037366 3.633591 -12.723664
H 7.295087 3.023843 -12.142080
O -3.721846 4.879719 -5.086411
H -3.419939 4.859354 -4.178298
H -4.239640 4.080737 -5.185145
O 0.982133 12.412710 1.563996
H 0.690839 12.712125 0.702758
H 1.210910 11.492470 1.433417
O -7.090239 -3.350171 5.423886
H -6.855662 -3.031435 6.295444
H -6.435362 -2.963483 4.842645
O 8.211695 1.450999 3.767464
H 8.810366 0.992140 3.178165
H 8.728142 1.611009 4.557345
O 9.987826 12.408542 -3.796361
H 10.917640 12.328409 -4.009097
H 9.585989 12.742134 -4.598530
O 1.602855 5.034343 6.333207
H 0.738854 5.115998 5.929392
H 1.439836 4.577742 7.158538
O 8.534140 9.991383 -2.672727
H 8.912848 10.775490 -3.070204
H 7.944740 9.643787 -3.342068
O 3.609710 22.568550 15.307904
H 3.295650 22.872430 14.456285
H 3.792634 21.637996 15.178138
O 8.470248 -10.070910 6.747152
H 9.290574 -10.563578 6.771147
H 8.325461 -9.890966 5.818234
O 6.135126 0.655246 0.982151
H 6.775491 1.313075 0.711179
H 6.583660 -0.181335 0.858943
O 5.382241 10.943581 11.603007
H 5.758803 10.174808 11.174730
H 5.736136 10.920438 12.492082
O 12.543883 -6.867260 -0.401225
H 12.026355 -7.576073 -0.019149
H 12.135554 -6.703255 -1.251285
O 3.697785 -1.196919 1.153587
H 2.955356 -1.776188 1.325282
H 3.326303 -0.315264 1.183879
O 3.042832 0.938754 5.022083
H 3.131186 0.240539 5.670867
H 3.631107 0.682279 4.311882
O -5.044185 7.819659 7.239460
H -4.758557 7.748256 8.150256
H -5.606959 7.057322 7.103968
O -2.449606 -4.920866 -6.422636
H -1.887597 -5.652102 -6.678903
H -1.951782 -4.139640 -6.663652
O 10.433229 -2.605847 -0.619862
H 10.137231 -3.334034 -0.073638
H 10.486491 -1.861954 -0.019847
O -0.938041 -7.409650 -6.872993
H -1.645534 -7.828495 -7.363151
H -0.212265 -7.359195 -7.495033
O 2.765545 8.182988 12.552474
H 1.882037 8.073974 12.200676
H 2.757257 9.050222 12.957528
O 6.237230 3.175929 -7.883740
H 6.740995 3.950364 -7.633334
H 5.516652 3.518933 -8.412274
O -8.234540 3.782151 -4.380538
H -9.119251 4.011839 -4.096353
H -8.297686 2.863885 -4.643280
O -8.335605 1.022303 -4.490621
H -8.129613 0.883866 -5.415086
H -8.537026 0.148354 -4.156145
O 1.763831 -0.615037 -8.081241
H 1.811694 -1.348308 -8.694638
H 1.046739 -0.073167 -8.410465
O 3.426930 7.537016 3.869620
H 2.724943 6.974615 3.542280
H 3.738641 7.096308 4.660092
O -10.123253 -1.923216 5.275021
H -9.749955 -1.280758 4.671592
H -9.690975 -2.746214 5.046896
O 6.407148 -4.360218 -16.002672
H 6.232986 -5.072987 -15.387969
H 7.110291 -4.691512 -16.561301
O -0.582259 1.196645 6.558326
H -0.832462 1.679193 5.770432
H -1.300289 0.579740 6.700075
O 3.887691 -8.837062 -6.322812
H 3.218047 -9.475789 -6.567428
H 3.515085 -7.991322 -6.572052
O 2.717848 1.424963 1.366707
H 2.764495 1.944861 0.564359
H 2.705608 2.072274 2.071739
O 6.333696 -1.663203 -3.758357
H 7.003529 -1.546089 -3.084681
H 6.113217 -2.593805 -3.718346
O -1.376713 2.552923 4.166902
H -1.441494 3.452785 4.486722
H -1.420710 2.633119 3.214083
O 4.078716 3.812521 11.679840
H 3.369786 4.454349 11.721140
H 3.742456 3.119783 11.111267
O -7.088075 -1.245193 -1.529834
H -6.668286 -0.425942 -1.267466
H -6.371726 -1.878546 -1.573879
O -5.594848 10.210975 0.772990
H -6.160232 9.440792 0.714748
H -4.946907 9.983171 1.439705
O 10.999807 4.650369 3.739615
H 10.128687 5.032664 3.633637
H 11.577291 5.226556 3.238863
O -8.724731 5.936359 13.330331
H -9.246272 5.390136 13.918435
H -9.314083 6.136728 12.603180
O -10.102216 11.452866 1.948815
H -10.588061 12.243583 1.714392
H -10.173367 10.890060 1.177830
O -0.797753 -11.986050 -2.752183
H -0.517124 -12.378610 -3.578849
H -1.728101 -11.799758 -2.878592
O -1.421527 3.011041 16.587708
H -1.176563 2.345210 15.945140
H -2.321730 3.244034 16.360594
O 1.479202 -1.170242 -5.162056
H 1.561353 -1.166388 -6.115717
H 2.277695 -1.598984 -4.854127
O 6.708811 -6.192763 10.859936
H 6.491416 -7.122008 10.933924
H 7.219733 -6.129336 10.052986
O 0.243866 8.331135 5.118381
H -0.358564 8.092459 4.413865
H 0.659554 9.138414 4.815499
O -4.143907 3.963063 -8.849343
H -4.410209 3.047519 -8.933569
H -4.095594 4.282798 -9.750269
O 5.074193 6.243872 5.849960
H 4.888174 6.258575 6.788796
H 4.750250 5.393021 5.554419
O -18.853563 11.027154 6.247057
H -17.995010 11.181864 5.853125
H -18.660464 10.755544 7.144371
O -2.198577 -1.006274 -8.369154
H -3.001617 -0.691443 -7.954137
H -2.427692 -1.101673 -9.293620
O 1.404118 -9.216915 3.069284
H 1.243968 -10.142772 3.251968
H 1.095032 -9.092393 2.171959
O -1.919661 7.326082 -11.302850
H -2.798665 7.340667 -10.924207
H -1.940263 7.999003 -11.983279
O -1.660766 -5.367180 -13.360221
H -0.828324 -5.158564 -13.784193
H -2.203181 -5.728579 -14.061227
O -2.269671 4.738015 -7.272476
H -3.020011 4.590413 -7.848179
H -2.655310 5.021356 -6.443481
O 0.399216 -9.881739 0.540530
H -0.205356 -10.512935 0.930807
H 0.982310 -10.412102 -0.002562
O 6.294821 -1.554577 -7.301994
H 5.875820 -1.867279 -8.103797
H 5.588863 -1.135080 -6.810183
O 0.031166 -7.792692 -1.006617
H 0.254762 -8.437923 -0.335861
H -0.770333 -7.379979 -0.684902
O 7.426443 12.879764 0.970297
H 7.348574 12.909777 0.016742
H 6.720530 12.297183 1.250511
O 3.226766 24.510137 8.336457
H 2.751700 23.779304 7.940948
H 4.048995 24.554126 7.848362
O 7.975152 -5.390856 8.138558
H 7.147978 -5.654828 7.735653
H 8.566790 -6.125393 7.975306
O -6.446694 -7.591043 0.188272
H -6.469040 -7.670600 -0.765354
H -7.363203 -7.480830 0.441441
O -10.886424 -11.403966 5.304236
H -11.652962 -10.831030 5.324144
H -11.244900 -12.287461 5.388874
O -4.478731 -4.852682 3.293568
H -3.713363 -4.394969 3.641334
H -4.659813 -5.539381 3.935352
O 5.615247 -6.552590 7.402567
H 5.836538 -7.173312 8.096805
H 5.451015 -7.099921 6.634655
O 1.265334 -10.369859 -3.517130
H 0.505749 -10.830655 -3.160859
H 0.941849 -9.490928 -3.714794
O -6.848620 2.842334 -14.699773
H -6.868686 3.199930 -15.587441
H -7.325867 3.482755 -14.172206
O -0.152982 -16.604653 3.709690
H 0.065942 -16.740015 2.787746
H 0.627761 -16.887517 4.185779
O -4.468598 0.800476 -3.212792
H -4.244396 -0.128283 -3.270870
H -5.066059 0.856953 -2.467083
O -4.813646 -7.428329 -5.172696
H -4.303725 -7.066803 -4.447774
H -4.883403 -8.362239 -4.974760
O -6.530195 -17.778716 -6.167020
H -6.555736 -18.705376 -6.405518
H -7.423311 -17.468000 -6.315455
O -0.811685 -2.656717 -6.481088
H -1.024760 -1.914113 -7.046216
H -0.054664 -3.067018 -6.899183
O 7.552585 -13.881789 -7.068338
H 7.097115 -13.141221 -7.468760
H 7.043818 -14.648099 -7.333209
O -8.547427 -6.841197 3.558623
H -8.802151 -6.020508 3.980306
H -9.291859 -7.425656 3.701664
O 9.716609 1.283124 -8.733414
H 10.063492 0.393261 -8.669796
H 9.005915 1.310032 -8.092773
O 3.108442 10.896511 -1.270890
H 2.553372 11.526322 -1.730747
H 4.001155 11.138859 -1.516986
O -2.158059 -3.154410 -2.111931
H -2.110413 -2.617774 -2.903122
H -3.032447 -2.986645 -1.760458
O -6.640530 4.286324 12.879472
H -7.202803 4.974098 13.235910
H -7.038024 4.063627 12.037667
O -2.500857 -1.905405 -4.506008
H -1.880732 -2.263322 -5.141280
H -2.808200 -1.090661 -4.903453
O -0.305648 1.450918 -0.538995
H -0.425794 1.661989 -1.464870
H -0.386242 0.498013 -0.497662
O 1.952952 3.854703 -6.257052
H 1.625370 4.462662 -5.594249
H 2.182831 3.065689 -5.766292
O 4.029903 4.180674 2.585096
H 4.005392 3.647433 3.379631
H 3.344482 4.836132 2.714732
O 1.187428 -5.257069 -14.486101
H 1.887915 -4.890616 -15.025787
H 1.061261 -6.143029 -14.825789
O -3.866470 -6.033239 -17.682210
H -3.195133 -5.539904 -18.153547
H -4.619588 -5.443314 -17.650066
O 1.424403 2.995802 3.816887
H 1.766621 2.337140 4.421274
H 0.495273 2.782534 3.730483
O -5.752450 12.674214 3.007666
H -5.284830 11.843632 3.095399
H -6.513001 12.465304 2.465309
O -14.635417 -7.779764 -3.898356
H -14.998561 -7.720629 -3.014693
H -15.230940 -7.259640 -4.437853
O 4.164383 -0.212482 8.572499
H 4.221937 0.737148 8.677958
H 3.524122 -0.337794 7.872074
O -5.171743 2.484684 -5.346401
H -5.824352 2.188863 -5.981084
H -5.261403 1.879526 -4.610211
O 6.057240 8.796167 0.920730
H 6.112143 8.761739 1.875734
H 5.325656 8.219164 0.701449
O 4.319236 1.437354 -1.110609
H 4.900363 2.092468 -1.497067
H 4.846340 1.021645 -0.428276
O -1.428018 -20.611422 -3.923019
H -1.653434 -20.179891 -4.747156
H -1.287347 -19.892847 -3.306503
O -9.465548 10.558939 4.828325
H -8.606392 10.922316 5.042895
H -9.618790 10.824521 3.921565
O 9.420909 0.538346 -0.423685
H 9.510902 0.205377 0.469212
H 9.167361 1.454773 -0.313657
O 1.717913 -2.114051 -2.432070
H 1.376252 -2.367382 -3.289579
H 2.473076 -1.559749 -2.628821
