351
Lattice="15.092501 0.0 0.0 0.0 15.092501 0.0 0.0 0.0 15.092501" Properties=species:S:1:pos:R:3 pbc="T T T" model=tip4pew T=300.0 t_ps=40.0
O -4.369283 -2.788072 6.859077
H -4.540788 -3.307209 7.644771
H -5.144212 -2.917201 6.312229
O 3.507195 -17.164814 -2.789923
H 3.478778 -16.258509 -2.483270
H 3.597378 -17.685496 -1.991807
O 3.022823 9.481531 3.755411
H 2.722684 10.183037 4.333371
H 3.948893 9.672707 3.606826
O -5.232228 -0.583975 -11.998658
H -5.841007 -0.446484 -12.724411
H -4.395681 -0.247728 -12.320153
O -1.907888 -4.253246 -1.017849
H -1.990201 -4.218374 -0.064832
H -2.576422 -3.648019 -1.338777
O 0.974991 -10.462665 -11.939566
H 0.143670 -10.620333 -11.492041
H 1.113844 -11.246519 -12.471095
O 2.997601 5.376145 -1.353060
H 2.749584 6.137290 -0.828295
H 2.168929 4.938102 -1.547102
O -7.342521 -7.224930 -1.399486
H -7.748753 -6.725245 -0.691303
H -6.411226 -7.240249 -1.178836
O -5.646566 6.171500 -5.752893
H -5.127789 6.960383 -5.910264
H -5.080312 5.614493 -5.218728
O -7.046873 5.360607 -3.530426
H -6.647953 5.926828 -4.191099
H -7.917660 5.732377 -3.389895
O 5.696779 0.190474 2.835515
H 5.851076 -0.279592 2.016087
H 6.204019 -0.292142 3.488217
O -11.511102 -11.505679 1.231396
H -11.918175 -10.923896 0.589484
H -11.374933 -10.954755 2.002222
O 3.037794 0.369355 4.165383
H 3.070790 0.821878 3.322551
H 3.561188 -0.421226 4.033957
O -0.021189 6.070301 11.312552
H -0.809163 6.427473 11.722133
H 0.347598 5.483574 11.972839
O 17.082940 1.147155 -5.413536
H 16.515852 1.540155 -6.077007
H 17.772023 0.710955 -5.914661
O -13.123095 -3.719624 -6.966384
H -13.327449 -4.021211 -7.851549
H -12.256596 -4.082739 -6.783192
O 9.370070 -11.378242 -8.129980
H 10.012477 -11.216771 -7.438986
H 8.622108 -11.766740 -7.676270
O -0.780805 5.324244 6.759507
H -1.515216 4.909189 6.307178
H -0.860152 5.029426 7.666710
O -3.541515 -5.583092 5.061434
H -2.893818 -6.275296 5.194001
H -4.381127 -6.041971 5.034736
O 11.450860 -7.748424 7.226926
H 10.615765 -7.835237 6.767239
H 11.942609 -8.532058 6.981298
O -3.326652 -10.644742 5.484681
H -3.521619 -10.091429 4.728331
H -4.175255 -11.002882 5.745143
O -6.879429 2.936362 4.378001
H -6.639211 3.623207 4.999911
H -7.822284 3.044566 4.253315
O -3.341299 3.416750 1.529895
H -3.647112 4.276249 1.819675
H -4.102252 2.844843 1.630413
O 2.163183 11.613126 -9.705957
H 1.464302 12.163555 -10.059264
H 2.971202 12.061356 -9.955810
O -2.587516 -15.150657 2.635473
H -2.326149 -14.721006 3.449917
H -1.843517 -15.022462 2.047032
O 6.824197 5.866770 -6.840728
H 7.735444 5.601539 -6.716175
H 6.747464 6.693174 -6.363863
O 10.950531 5.717512 -11.988822
H 11.164797 6.616603 -12.237735
H 9.998118 5.666586 -12.069742
O -4.651738 5.467105 -1.653582
H -5.522664 5.453968 -2.050505
H -4.760879 5.979248 -0.852314
O -1.214126 9.403392 1.412920
H -1.355815 10.193229 1.934756
H -0.494267 8.951091 1.852760
O -8.180962 -6.468531 9.022052
H -9.051927 -6.597798 9.397474
H -7.615943 -6.305178 9.777235
O 7.405152 -0.928743 4.709867
H 8.084836 -0.644752 4.098630
H 7.420869 -0.273600 5.407557
O 8.941596 16.022866 -4.368470
H 9.874147 16.238591 -4.361968
H 8.871868 15.277410 -4.964847
O -1.375283 0.779885 4.894924
H -2.105723 0.819478 5.512275
H -1.314392 1.665977 4.538042
O 8.557458 10.672455 3.100286
H 9.351281 11.011790 2.686850
H 8.543462 11.082119 3.965278
O 5.231165 22.276680 18.733327
H 4.743741 22.824630 18.118184
H 4.786204 21.429668 18.704847
O 9.679192 -14.393932 5.370238
H 9.821620 -14.873600 4.554233
H 9.208374 -13.603820 5.105126
O 2.245296 -0.291153 1.092399
H 1.852336 -1.163725 1.071601
H 3.115916 -0.410930 0.713048
O 5.209303 12.448935 9.934576
H 6.069724 12.154211 10.232979
H 4.639223 12.333807 10.694831
O 13.504626 -11.580834 -0.660920
H 13.001009 -11.698964 0.144467
H 13.362054 -10.665266 -0.901004
O 0.918092 -2.503471 0.864938
H 1.135917 -3.368381 1.212379
H 0.563984 -2.677394 -0.007180
O 4.231689 6.157245 6.633502
H 3.566326 5.601263 7.038974
H 5.064441 5.790377 6.930428
O -3.890245 8.585606 9.774560
H -3.654442 8.232831 8.916551
H -3.094393 9.018996 10.082821
O -1.263139 -7.470103 -9.738926
H -0.773464 -7.555183 -10.556980
H -0.849107 -8.096392 -9.145149
O 10.095428 -4.268041 -0.466745
H 10.215513 -3.917179 0.415699
H 10.475512 -3.604578 -1.042579
O 0.492440 -7.678627 -12.130949
H 0.813775 -8.575665 -12.222048
H 1.261780 -7.131053 -12.287513
O 4.238106 7.703835 9.833456
H 4.588891 6.961246 10.325131
H 3.322491 7.761455 10.106515
O 6.261338 0.275331 -7.890001
H 6.451898 1.204876 -7.764040
H 5.323511 0.246123 -8.079368
O -9.927703 5.543420 -3.608546
H -10.200028 5.267898 -2.733241
H -10.391668 4.952258 -4.201417
O -8.317045 2.883503 -7.114265
H -9.021672 3.526949 -7.189830
H -8.324705 2.626383 -6.192277
O 3.334702 0.677096 -8.299542
H 3.181179 0.668246 -9.244309
H 3.272825 -0.241523 -8.037737
O 3.625964 5.065663 4.037714
H 2.680403 5.049072 3.889827
H 3.724564 5.421995 4.920628
O -15.195774 -1.904394 4.732493
H -15.783682 -2.031749 5.477058
H -15.432988 -1.045175 4.383632
O 7.523956 -3.641232 -15.929581
H 8.178927 -3.994280 -15.327416
H 7.801827 -3.947475 -16.792851
O -1.569328 -2.638610 6.980640
H -2.500277 -2.707611 6.768967
H -1.296160 -3.538717 7.157888
O 3.650619 -11.357174 -4.997304
H 2.956577 -10.989411 -5.544376
H 3.756447 -12.254043 -5.314572
O 3.092008 0.428241 -1.765208
H 3.914725 0.902961 -1.883572
H 2.878273 0.545548 -0.839580
O 5.628644 1.215590 -2.059067
H 6.303271 0.546023 -1.945973
H 5.644667 1.416773 -2.994749
O -0.573942 0.361803 0.837783
H -0.985706 0.371944 -0.026265
H 0.299103 0.001005 0.683357
O 4.892004 8.557024 13.706786
H 4.083146 8.995641 13.442977
H 5.319006 8.324776 12.882188
O -7.936737 -1.049824 -1.855548
H -7.450720 -1.376492 -2.612718
H -7.930934 -1.777991 -1.234281
O -4.235224 11.906397 2.056934
H -4.295759 12.856526 2.156041
H -3.417045 11.671111 2.494491
O 13.586315 3.365268 3.698067
H 12.890047 3.752282 4.228786
H 13.179356 3.207871 2.846103
O -7.346189 8.972511 16.292461
H -7.157306 8.105381 16.651125
H -7.115448 9.578811 16.996301
O -11.018585 11.506151 0.619414
H -11.879965 11.328893 0.997351
H -10.512445 10.712458 0.792922
O 0.782201 -11.047693 -2.215393
H 1.099021 -11.872593 -2.583355
H 0.125659 -11.309332 -1.569846
O -5.430975 0.085732 13.859030
H -6.211697 -0.000541 13.311981
H -5.179335 1.005412 13.774780
O -2.092119 -5.303554 -7.509967
H -2.878386 -5.270595 -8.054879
H -1.591950 -6.043230 -7.854849
O 10.461764 -7.255591 14.961448
H 10.295848 -6.323755 14.818668
H 10.953899 -7.288791 15.781773
O 1.770539 9.792476 1.554111
H 2.054926 8.981445 1.132703
H 2.302137 9.849580 2.348072
O -1.073098 4.285143 -5.839379
H -0.545893 4.591548 -5.101543
H -0.880696 3.349416 -5.899610
O 9.459407 7.696313 5.388683
H 8.599518 7.893595 5.760035
H 9.269643 7.333037 4.523668
O -19.941165 11.172362 9.503487
H -19.446046 11.812453 10.014733
H -19.561766 10.327325 9.744735
O -3.097618 1.387510 -8.141091
H -3.824031 1.995273 -8.279585
H -3.516166 0.572305 -7.864524
O 5.672677 -12.278770 3.715091
H 5.439292 -13.120350 3.323292
H 4.866320 -11.764415 3.676897
O -3.810996 8.543508 -12.710531
H -3.940696 8.948203 -11.852841
H -2.916777 8.781483 -12.955424
O 2.391781 -5.676745 -17.118445
H 1.973747 -4.817588 -17.060752
H 2.179326 -5.988415 -17.998193
O -2.224801 6.528414 -2.338378
H -3.111089 6.175065 -2.261765
H -2.338181 7.365166 -2.789181
O 0.991325 -12.863279 1.719890
H 0.465964 -13.544578 1.300295
H 1.867665 -13.242600 1.786030
O 6.993074 -3.748470 -7.203165
H 6.067259 -3.571281 -7.036724
H 7.173933 -4.554367 -6.719376
O 2.064138 -7.615050 -0.052970
H 1.202796 -8.018457 -0.160599
H 2.093112 -6.929433 -0.720294
O 4.717865 14.036323 0.414593
H 5.234897 14.218057 -0.370189
H 4.689035 13.080998 0.467084
O 3.087543 23.742599 6.272734
H 3.370460 22.878870 6.573005
H 3.029054 23.658542 5.321027
O 8.620582 -6.147332 11.439824
H 9.517473 -6.466219 11.540469
H 8.140821 -6.547426 12.165073
O -6.942337 -8.367030 3.112024
H -7.826100 -8.139473 3.400835
H -7.076247 -8.915971 2.339389
O -14.196215 -12.921937 7.219396
H -14.836514 -13.330682 6.637007
H -13.378929 -13.387600 7.042102
O -9.209331 -4.677348 4.128513
H -8.390429 -4.851543 3.664521
H -9.029013 -4.925846 5.035136
O 4.374536 -5.157893 8.299227
H 4.136582 -5.736463 9.023703
H 4.026359 -5.592517 7.520698
O 1.342704 -6.801799 -4.321063
H 0.851596 -7.588155 -4.082966
H 0.701185 -6.241108 -4.757309
O -5.276364 2.768463 -16.265192
H -4.792807 3.527725 -16.590654
H -5.748055 3.094806 -15.498877
O -1.894389 -18.846701 3.442503
H -2.437881 -19.223029 4.134764
H -1.314104 -18.236670 3.897875
O -7.950483 2.918285 -4.444088
H -7.316198 2.233875 -4.230784
H -7.584104 3.713822 -4.057929
O -1.291355 -8.384037 0.141206
H -1.255200 -7.463193 0.399995
H -1.584565 -8.365962 -0.769800
O -7.497047 -18.675801 -4.236342
H -6.968572 -19.461421 -4.095817
H -6.939779 -18.102720 -4.762899
O -1.237653 1.364207 -6.013997
H -1.654218 1.187194 -6.857425
H -1.094247 0.498838 -5.630847
O 8.083834 -16.572020 -6.181293
H 7.465520 -15.943943 -6.554708
H 7.780599 -17.423538 -6.496248
O -8.311907 -6.460975 6.076627
H -8.444008 -6.449729 7.024601
H -8.974323 -7.069446 5.749214
O 10.844973 -0.507408 -6.913152
H 10.931739 -1.371692 -7.315292
H 9.900514 -0.360897 -6.860580
O 1.497266 13.081235 -4.562495
H 2.100855 12.949170 -3.831419
H 2.032833 13.483691 -5.246182
O -3.435809 1.225524 -3.822524
H -2.687168 1.176682 -4.416984
H -3.053705 1.146884 -2.948427
O -7.222579 5.870049 15.698007
H -7.256824 6.537291 15.012553
H -7.641462 5.103076 15.307469
O -1.552186 0.818009 -1.657200
H -0.826755 0.789215 -2.281022
H -1.593644 1.733075 -1.379410
O 0.771648 1.147299 -2.862861
H 0.999866 0.941962 -3.769494
H 1.511694 0.822867 -2.349725
O 2.064527 4.638196 -7.215964
H 1.628178 3.854926 -7.551105
H 1.390813 5.317677 -7.241405
O 8.138439 2.991323 1.286451
H 7.381520 2.938327 0.702930
H 7.762180 3.130140 2.155583
O 0.705220 -3.584792 -17.127327
H -0.146744 -3.831656 -16.767540
H 0.504859 -3.217533 -17.988262
O -1.917373 -6.045227 -18.440846
H -1.992822 -5.436439 -17.706056
H -1.177282 -5.715592 -18.950589
O -3.663414 -2.288069 -1.965120
H -3.482443 -2.074998 -2.880588
H -3.999860 -1.473704 -1.591162
O -6.585860 11.757603 5.624612
H -7.240242 11.529508 6.284906
H -6.874391 12.603997 5.283147
O -15.457737 -4.792033 -5.295395
H -14.659489 -4.353685 -5.590155
H -16.064349 -4.705940 -6.030814
O 3.345543 -1.572112 8.355432
H 4.084664 -2.051011 8.730382
H 2.717499 -2.252249 8.112111
O -3.687442 4.062789 -4.741157
H -3.593730 3.309343 -4.158259
H -2.800260 4.233287 -5.057496
O 4.826812 8.706406 1.398751
H 5.773256 8.733166 1.539321
H 4.725842 8.369362 0.508561
O 5.977406 3.349325 -0.294895
H 5.594302 2.673807 -0.854483
H 5.272820 3.590981 0.306265
O -3.379134 -16.824971 -4.721170
H -2.494365 -16.708663 -5.067421
H -3.912892 -16.199868 -5.211660
O -10.326978 12.805643 5.062788
H -9.772389 12.269388 4.496136
H -9.737877 13.474559 5.411707
O 8.373992 -0.038925 1.116014
H 8.168123 0.894756 1.161730
H 8.810579 -0.147325 0.271104
O -0.951749 -1.513676 -5.774133
H -0.027760 -1.655283 -5.568161
H -1.089063 -1.983731 -6.596584
