351
Lattice="15.159886 0.0 0.0 0.0 15.159886 0.0 0.0 0.0 15.159886" Properties=species:S:1:pos:R:3 pbc="T T T" model=tip4pew T=300.0 t_ps=4.0
O -2.436193 -7.558418 7.766849
H -1.709456 -7.491556 7.147484
H -2.028015 -7.461160 8.627177
O 9.171215 -11.711073 -2.103840
H 9.897033 -12.314579 -2.262589
H 8.433625 -12.092207 -2.580211
O 7.060293 6.709228 -0.451638
H 6.124855 6.722955 -0.249155
H 7.419978 6.032159 0.121456
O -5.592406 1.630732 -12.383115
H -5.825595 0.763905 -12.715477
H -5.268436 2.102725 -13.150251
O 3.378039 -1.019535 2.074437
H 3.715964 -0.543447 2.832974
H 4.061959 -0.930055 1.410752
O -3.878448 -3.454780 -1.352718
H -4.085894 -2.708630 -1.915265
H -3.477243 -4.094553 -1.940899
O 4.313794 2.600976 2.089291
H 4.008816 1.964628 2.736038
H 3.511924 2.966427 1.715552
O -2.477603 -9.296121 4.489155
H -2.863976 -9.630834 5.298423
H -3.164516 -8.753659 4.101705
O 3.993602 4.845599 -1.989847
H 3.131972 4.437221 -1.905860
H 4.090699 5.367105 -1.193081
O -2.394681 3.708376 -1.038965
H -2.685994 2.819701 -0.834942
H -2.904935 4.268434 -0.453980
O 7.883066 3.238944 4.539516
H 7.720523 2.451347 5.058654
H 8.394656 2.931720 3.791104
O -4.405633 -7.562794 3.728378
H -4.593500 -7.236723 4.608500
H -5.113110 -8.181041 3.545409
O 9.862261 -5.828141 1.632481
H 9.520690 -6.443241 0.983472
H 10.292955 -6.381408 2.284118
O -2.897802 -1.003408 7.782187
H -3.407704 -0.534412 8.442698
H -3.062947 -0.526936 6.968594
O 14.661757 4.106769 -4.438172
H 15.054107 3.249530 -4.272536
H 15.023704 4.377361 -5.281976
O -7.105898 -5.775272 -0.660473
H -7.275891 -6.710471 -0.547616
H -7.568306 -5.357882 0.066298
O 9.814464 -4.073531 -5.327352
H 9.645312 -4.714808 -4.637147
H 9.236262 -4.334353 -6.044210
O -1.887537 -0.906675 4.109099
H -2.566106 -1.580987 4.141945
H -1.067162 -1.385888 4.225597
O -1.497799 -3.347418 1.771872
H -2.430443 -3.459802 1.588088
H -1.162355 -2.858404 1.020490
O 8.949300 -3.916482 6.790976
H 8.083111 -3.696183 7.133637
H 8.800927 -4.099577 5.863240
O -0.269584 -10.277684 0.108262
H -0.536092 -9.440798 -0.272301
H -0.844907 -10.922543 -0.303312
O -6.389467 5.930900 2.985001
H -6.886035 5.412678 2.351677
H -6.640444 5.573642 3.836828
O -0.791096 -1.102675 -0.078312
H -1.061999 -0.922132 -0.978450
H -0.441879 -0.269793 0.238843
O -2.745793 9.949345 -3.469319
H -2.510000 10.694083 -4.022491
H -1.935365 9.447049 -3.384842
O -2.058090 -11.321045 2.577517
H -2.031506 -10.683722 3.291201
H -1.325328 -11.078247 2.011530
O 2.120312 0.622958 -2.018489
H 1.821700 0.512759 -1.115761
H 2.802129 1.292709 -1.965661
O 6.128598 11.499474 -7.782321
H 5.579656 10.749716 -8.012012
H 5.507146 12.193308 -7.561812
O 0.417192 1.384925 -4.101713
H 0.953747 0.932992 -3.450484
H 0.539108 0.879690 -4.905520
O 0.376280 8.103209 2.956539
H 1.139149 8.637610 2.735910
H 0.744631 7.281047 3.279957
O -8.157131 2.393319 -3.455558
H -8.769216 2.137670 -2.765465
H -8.714812 2.714890 -4.163948
O 3.095787 2.402495 7.021247
H 3.272571 1.464282 6.952425
H 3.430248 2.647063 7.884123
O 10.829928 8.367990 -1.161092
H 11.336469 8.971474 -1.704650
H 10.105695 8.896788 -0.826291
O 6.179280 5.948694 7.963467
H 5.641476 5.472317 8.595973
H 6.112701 6.864600 8.233495
O 3.075852 7.161582 -6.147506
H 2.916879 7.410286 -7.058058
H 4.021637 7.256203 -6.034503
O -0.379528 10.615309 13.685717
H -0.833692 10.186361 14.410955
H 0.477396 10.847949 14.043198
O 8.665893 -10.551514 8.084286
H 8.034092 -9.843755 7.957259
H 8.949681 -10.459511 8.993809
O 5.752629 -1.031872 0.349636
H 5.574281 -1.657506 -0.352507
H 6.404221 -1.467279 0.899255
O 6.593218 13.660770 10.664212
H 6.247818 12.768295 10.684648
H 7.434867 13.582149 10.215127
O 11.081342 -10.155525 0.914297
H 11.817070 -10.663973 1.255496
H 11.437647 -9.277041 0.781837
O 2.593562 -5.558904 2.425233
H 2.232135 -5.059955 1.692668
H 2.731835 -4.908382 3.113661
O 2.870436 -0.667137 6.652663
H 1.925976 -0.599501 6.792845
H 3.247984 -0.610767 7.530451
O -1.657611 4.606585 8.154189
H -1.997760 5.498315 8.081052
H -0.834684 4.622807 7.665558
O -0.548002 -6.902699 -9.268396
H -0.586214 -5.998474 -8.956709
H -0.552139 -6.827984 -10.222666
O 9.229717 -0.767496 1.477149
H 10.118492 -1.072032 1.660369
H 9.286409 -0.370691 0.607918
O -3.669561 -4.617125 -8.081217
H -4.578518 -4.345528 -8.208752
H -3.685433 -5.567820 -8.191486
O 2.044210 7.528842 11.650917
H 2.574573 7.410383 10.862936
H 1.856773 6.639109 11.950040
O 10.222465 4.921850 -9.431871
H 10.593592 4.221786 -9.968906
H 9.711719 4.466007 -8.762859
O -11.445867 3.030663 -5.504827
H -10.971621 3.686715 -4.994025
H -10.986266 2.210014 -5.327245
O -9.592901 1.136055 -5.658341
H -9.010156 0.454783 -5.322916
H -9.116500 1.517741 -6.395626
O 3.168296 -3.745408 -6.664785
H 2.811965 -3.320185 -7.444815
H 2.397614 -4.020454 -6.168166
O 2.484154 11.976595 3.778954
H 2.515168 12.493974 4.583683
H 2.896597 12.534097 3.119170
O -6.130389 -4.557585 4.211376
H -6.041739 -4.350894 3.280972
H -6.386708 -5.479660 4.229012
O -1.314627 -0.489836 -18.338355
H -0.855553 -1.265734 -18.660014
H -0.796074 0.246997 -18.661484
O -4.966445 -1.093187 5.933065
H -4.594555 -1.528130 5.165762
H -5.458784 -1.779764 6.383006
O 3.313075 -6.260695 -1.445947
H 2.916090 -6.814859 -2.117912
H 4.138622 -5.968756 -1.832569
O 6.332030 1.590420 -0.015009
H 6.093449 0.680646 0.162814
H 6.206865 2.039178 0.821162
O 3.829961 -0.625745 -5.929145
H 4.442460 0.093950 -5.777107
H 3.715417 -1.029213 -5.068723
O 1.762607 3.518606 1.605807
H 1.224750 4.269493 1.354590
H 1.537190 3.357763 2.522076
O 4.594862 9.285196 6.482909
H 3.641980 9.356015 6.539758
H 4.748187 8.434417 6.071937
O -6.090102 -1.465240 -5.632819
H -5.872618 -1.029675 -6.456965
H -5.729957 -2.347278 -5.725210
O -5.044247 7.523196 6.717689
H -5.125030 6.601553 6.472170
H -4.173885 7.591606 7.110146
O 3.086133 4.361905 5.081013
H 3.342588 3.866072 5.858581
H 3.868002 4.363655 4.528826
O -5.586695 4.747634 10.747099
H -4.692993 4.983877 10.995529
H -5.918437 4.246669 11.492226
O -10.579597 12.254245 -1.427072
H -10.095425 11.501907 -1.767360
H -10.925996 12.689090 -2.206270
O -3.989415 -13.434525 -0.085078
H -3.664543 -14.178762 0.421677
H -4.740943 -13.781307 -0.565890
O 4.493753 2.099432 13.252027
H 4.477412 3.052679 13.337380
H 4.801079 1.787505 14.103193
O -2.891340 -2.793960 -5.178574
H -3.677655 -3.286492 -5.413845
H -2.474426 -2.592930 -6.016429
O 5.358232 -4.069779 10.350188
H 5.687783 -4.793187 9.816982
H 4.498342 -3.870882 9.979701
O 0.176683 5.425096 3.758481
H 0.255853 5.054251 4.637365
H -0.675613 5.860782 3.757721
O -3.779686 2.721764 -10.673103
H -4.476724 2.188749 -11.055549
H -3.242961 2.986788 -11.420044
O -1.968206 7.319999 10.341767
H -1.937872 6.516211 10.860648
H -1.316041 7.891796 10.746687
O -12.329128 7.004927 4.128188
H -12.617816 6.166927 4.489640
H -11.405230 7.065516 4.371029
O -2.680299 2.221307 -8.108679
H -2.535450 3.091384 -7.736903
H -3.337526 2.358244 -8.790978
O 7.815175 -6.842953 3.689728
H 7.081549 -7.168347 4.211403
H 8.265959 -7.632657 3.390741
O 1.623331 2.200003 -11.066453
H 0.766604 2.081477 -10.656327
H 1.926915 3.049661 -10.746845
O -0.377847 -3.036020 -10.915460
H -0.645727 -3.038016 -11.834410
H 0.511384 -3.390176 -10.923931
O -0.659566 1.382513 -9.557877
H -1.503011 1.673604 -9.211326
H -0.868585 0.606203 -10.077383
O 4.326899 -8.456391 0.013562
H 3.969254 -7.682921 -0.422404
H 4.426984 -8.191697 0.927976
O 6.597901 -1.396348 -10.754710
H 6.755400 -1.884034 -9.946262
H 6.902220 -0.509285 -10.563031
O -2.454081 -8.086137 0.421599
H -3.138830 -7.703436 -0.126935
H -1.962384 -7.333984 0.751344
O -0.151678 8.981270 -3.622973
H 0.633055 8.433421 -3.605965
H -0.045379 9.575888 -2.880436
O 1.670846 19.981556 8.925983
H 2.171641 20.790302 9.032597
H 2.080100 19.364172 9.532265
O 8.462491 -6.469772 8.670927
H 8.924516 -6.738219 9.465094
H 8.952337 -6.879824 7.958088
O -0.888877 -5.809548 0.859325
H -0.465147 -6.326749 1.544297
H -0.854780 -4.909254 1.182651
O -9.852030 -8.456959 5.408040
H -9.859488 -9.175548 4.775737
H -9.694837 -8.881169 6.251585
O -3.804126 -2.909630 4.109424
H -4.264888 -3.740951 4.222713
H -3.501009 -2.925019 3.201617
O 2.091197 -6.983072 6.462483
H 1.146330 -6.920139 6.322847
H 2.411197 -7.487815 5.714776
O -2.881276 -10.080724 -3.421217
H -2.163546 -10.349692 -3.994586
H -2.692144 -10.505521 -2.584552
O -9.641612 4.361064 -11.399732
H -9.992069 3.742064 -12.040240
H -8.773194 4.019685 -11.186329
O -3.062915 -15.528992 1.536913
H -2.465334 -16.130756 1.093057
H -2.693916 -15.427999 2.414336
O -4.542323 0.990762 -6.353606
H -3.685989 1.279564 -6.669070
H -4.598436 1.335297 -5.462327
O -7.836943 -8.424989 -3.821666
H -6.913838 -8.669238 -3.888389
H -7.937898 -8.111562 -2.922887
O -7.239271 -13.287919 -7.040164
H -7.311639 -12.336994 -6.958094
H -6.307706 -13.469341 -6.915652
O -7.157768 0.807880 -9.406495
H -7.198625 1.191979 -8.530692
H -6.292415 0.401060 -9.449998
O 5.888455 -6.877987 -5.786371
H 6.713742 -6.544565 -6.138454
H 6.129528 -7.284885 -4.954176
O -7.759608 -2.608785 2.018486
H -7.057760 -2.000776 1.786179
H -8.022808 -2.345812 2.900417
O 4.204222 0.537580 -11.166358
H 4.696505 -0.126491 -10.683762
H 3.677508 0.977821 -10.499281
O -5.041040 8.048400 -4.300919
H -4.234711 8.171244 -4.801893
H -4.762217 7.596766 -3.504354
O -4.316024 1.072773 -3.435690
H -4.344760 0.124482 -3.562775
H -3.433517 1.244226 -3.107031
O -9.904119 4.877240 10.795902
H -10.358386 4.837909 11.637523
H -9.129963 5.413913 10.965889
O -4.534773 -1.625249 -3.189218
H -3.779405 -1.912197 -3.702356
H -5.256513 -1.601088 -3.817502
O 0.959356 -0.330040 2.776796
H 1.439405 0.392947 3.180621
H 1.640634 -0.912712 2.441258
O 1.253300 5.232433 -2.528512
H 0.869169 4.887979 -1.722270
H 0.825750 4.738531 -3.228150
O 4.842143 8.074264 2.381120
H 5.381016 8.757367 1.982099
H 4.002372 8.500499 2.552409
O 6.811143 -5.257022 -13.460665
H 7.094788 -5.634522 -12.628036
H 7.074138 -4.338083 -13.409518
O -4.083383 -3.594760 -13.835991
H -4.020970 -3.345610 -14.758087
H -4.555182 -4.427572 -13.843828
O -0.155033 -0.584986 7.631697
H -1.078118 -0.837649 7.614175
H -0.153941 0.337832 7.377457
O -9.373241 9.818185 -2.525710
H -8.465646 9.922318 -2.239949
H -9.375944 10.124429 -3.432595
O -14.969759 -2.588759 -3.567098
H -14.948780 -3.096135 -4.378493
H -15.453123 -3.140061 -2.951747
O -0.914191 -4.363637 6.693213
H -1.842378 -4.236029 6.889216
H -0.765510 -3.856501 5.895129
O 0.452359 4.032358 -8.770219
H 1.231613 3.892461 -8.232237
H 0.149104 3.150776 -8.987202
O 1.982652 10.790355 -0.049597
H 2.386779 10.022037 -0.452834
H 2.441233 11.534894 -0.438951
O 0.423580 -4.545179 9.158768
H -0.048659 -4.591129 8.327437
H 0.359028 -5.428997 9.520611
O 0.565819 -13.907534 0.571302
H 1.068544 -13.097226 0.654374
H 0.810592 -14.421759 1.340647
O -6.806387 4.635829 0.518295
H -5.898794 4.854651 0.729534
H -6.745577 4.091909 -0.266998
O 9.048055 0.481407 -0.899279
H 9.254220 0.284090 -1.812949
H 8.163867 0.847072 -0.926340
O 3.036401 -1.641564 -3.362738
H 2.164032 -2.027313 -3.442757
H 2.882426 -0.776719 -2.982518
