351
Lattice="15.117554 0.0 0.0 0.0 15.117554 0.0 0.0 0.0 15.117554" Properties=species:S:1:pos:R:3 pbc="T T T" model=tip4pew T=300.0 t_ps=36.0
O -3.771379 -1.314478 6.915805
H -4.010970 -1.951640 7.588747
H -4.363362 -1.500969 6.187102
O 2.060135 -16.644067 -2.997306
H 2.314852 -15.829976 -3.431595
H 1.103240 -16.621812 -2.987875
O 1.985758 9.541055 3.962108
H 2.317895 10.054595 4.698445
H 2.707644 8.955851 3.732655
O -5.370572 -0.026445 -12.026448
H -5.532771 -0.548992 -11.241039
H -4.437306 0.182600 -11.987112
O -0.564466 -2.918179 -0.787474
H -1.482529 -3.084837 -0.573890
H -0.595294 -2.260852 -1.482603
O -1.261012 -9.345062 -10.964457
H -1.685410 -9.564777 -10.135095
H -1.469665 -8.421283 -11.103479
O 4.278360 4.257514 -2.654647
H 4.096862 5.019210 -2.104093
H 3.820883 4.440144 -3.475375
O -8.726655 -6.802600 -3.203299
H -9.596191 -6.470069 -3.425921
H -8.564406 -7.496782 -3.842061
O -5.841045 4.274635 -4.592834
H -5.449313 5.025592 -5.038751
H -6.321794 3.811973 -5.279170
O -4.894262 4.317842 -2.044790
H -4.509913 5.171248 -1.844275
H -5.151898 4.380796 -2.964515
O 4.651145 1.553854 3.351228
H 4.569731 0.666597 3.001402
H 5.582041 1.647631 3.553395
O -10.797927 -12.132121 -0.056539
H -10.845796 -11.653550 -0.884132
H -10.919901 -11.461751 0.615741
O 1.248939 0.917004 2.249348
H 2.071449 0.427631 2.234451
H 1.511355 1.830839 2.138552
O -1.247009 3.814936 9.815412
H -2.007949 3.240106 9.897697
H -0.982921 3.994149 10.717837
O 17.202226 0.901456 -4.782091
H 16.302201 0.759075 -5.075204
H 17.723622 0.290231 -5.302458
O -12.073938 -3.659552 -6.373014
H -12.189425 -3.606830 -7.321758
H -11.833379 -4.571731 -6.210861
O 7.208236 -8.653536 -5.812868
H 8.136322 -8.537541 -5.609315
H 6.962504 -9.460785 -5.360986
O -1.769348 6.219428 8.387298
H -2.294121 5.889057 7.658120
H -1.640179 5.458873 8.953959
O -2.766773 -4.473256 5.301311
H -2.321208 -4.199559 6.103055
H -2.547814 -3.795567 4.661759
O 9.445698 -7.148427 6.123100
H 8.678115 -7.691330 5.943365
H 10.033212 -7.311688 5.385263
O -3.237617 -9.795761 6.053619
H -3.593317 -9.309340 5.309910
H -4.007885 -10.139964 6.505775
O -8.412721 5.771393 3.149217
H -8.145929 6.383112 3.835405
H -9.324494 5.563972 3.353856
O -3.590454 5.556083 1.308646
H -3.745453 5.938469 2.172352
H -4.188996 4.810355 1.265421
O 2.983057 11.232588 -9.095236
H 2.782340 12.147876 -9.290664
H 3.904827 11.132935 -9.333232
O -2.687001 -15.027308 2.951945
H -2.029482 -14.541169 3.449509
H -2.546471 -14.760194 2.043576
O 4.667536 5.611402 -9.586037
H 4.337633 4.713287 -9.614048
H 4.019345 6.089134 -9.068492
O 11.159151 6.778368 -11.398908
H 11.989463 7.252667 -11.441966
H 10.576895 7.260003 -11.986478
O -4.311581 6.519558 -5.452290
H -4.172339 6.940889 -4.604161
H -3.437446 6.246949 -5.731225
O -0.126489 11.873956 1.679016
H -0.317056 12.027299 0.753597
H -0.203770 10.925905 1.786065
O -8.133854 -5.610887 6.869948
H -8.969702 -5.638481 7.335597
H -7.487478 -5.884781 7.520650
O 7.321761 1.688997 4.051392
H 7.966439 0.991904 3.930216
H 7.203277 1.744125 4.999629
O 9.815537 13.679844 -1.699101
H 9.835637 14.635142 -1.755969
H 9.045660 13.425297 -2.207753
O -0.932619 1.728284 3.914897
H -1.120834 2.455895 3.322115
H -0.199049 1.269122 3.505902
O 9.650960 9.622646 0.190195
H 9.055191 10.261450 0.581628
H 9.673215 8.899654 0.817107
O 3.648613 22.770275 18.163205
H 3.912843 22.688372 17.246850
H 3.074763 22.019458 18.315528
O 9.288692 -10.879127 6.429898
H 8.599012 -10.333914 6.808469
H 9.083517 -10.911194 5.495496
O 4.108823 -1.290083 3.123724
H 3.530974 -1.248428 2.361761
H 4.735622 -1.981853 2.912040
O 5.501612 12.795042 11.915060
H 6.390832 12.969146 11.606503
H 5.591290 12.033891 12.488504
O 12.880948 -8.474138 -1.073055
H 12.309821 -8.922767 -0.449534
H 12.280529 -8.038906 -1.678284
O 2.229278 -2.290934 1.127832
H 1.433715 -2.760474 1.378517
H 1.935131 -1.647584 0.482999
O 3.262839 2.444934 5.820613
H 3.597254 1.880105 6.517296
H 3.578314 2.041172 5.012107
O -5.735123 8.473048 8.686730
H -5.773771 8.208448 7.767641
H -5.029970 7.943787 9.059388
O -0.682892 -6.377147 -6.554909
H -0.111747 -6.418574 -7.321922
H -1.202949 -7.179518 -6.599331
O 12.163261 -3.411837 -0.201107
H 11.746195 -4.273396 -0.198842
H 11.533124 -2.839021 0.235975
O 0.430259 -6.806137 -9.213591
H -0.185677 -7.265359 -9.784528
H 0.960491 -6.276629 -9.809165
O 4.056546 9.266774 10.808771
H 3.254440 8.744415 10.809212
H 3.836610 10.044693 11.321316
O 6.578639 2.237622 -8.521525
H 7.257290 2.275685 -7.847569
H 5.948134 1.597572 -8.191327
O -9.000041 4.007777 -4.683651
H -9.340212 4.091968 -3.792906
H -9.732877 3.654511 -5.188019
O -8.690558 0.974782 -5.044240
H -8.507944 1.851716 -4.706791
H -9.620824 0.837671 -4.865246
O 4.237318 0.199978 -7.989921
H 3.605315 -0.311627 -8.494960
H 4.345978 -0.289910 -7.174793
O 1.613885 5.781338 3.480035
H 1.455663 5.549243 2.564978
H 0.787856 5.587410 3.923091
O -12.438932 -1.142681 5.321992
H -13.355658 -1.063145 5.058329
H -11.966249 -1.295259 4.503748
O 6.173207 -4.521036 -16.601046
H 6.467691 -5.359405 -16.956922
H 5.386920 -4.736184 -16.099353
O 0.099355 -1.369187 4.759150
H -0.414221 -0.924441 5.433444
H -0.463156 -2.084258 4.461680
O 3.609433 -12.085206 -5.569027
H 3.174961 -11.834618 -6.384301
H 3.077995 -12.803000 -5.224676
O 3.651025 0.458497 0.759441
H 4.495201 0.035854 0.601414
H 3.826182 1.393064 0.649274
O 5.554048 -1.207688 -0.632960
H 6.429083 -1.447358 -0.327832
H 5.546201 -1.455059 -1.557610
O -2.192797 0.102525 -0.135391
H -3.038669 0.519161 0.029370
H -2.032957 0.244639 -1.068390
O 3.195705 6.371242 13.897337
H 2.740812 5.840721 14.551441
H 2.604318 6.383461 13.144779
O -7.199535 -2.745911 0.024663
H -7.568226 -3.250260 -0.700548
H -6.373203 -2.403882 -0.316545
O -4.578722 12.373796 1.852668
H -4.705931 13.296832 2.071882
H -3.808298 12.111445 2.356504
O 13.921738 3.770777 2.252085
H 14.029061 4.558350 2.785417
H 13.269494 4.013115 1.594756
O -8.230305 6.892092 15.695487
H -7.899946 6.079463 15.312436
H -8.459979 6.657568 16.594642
O -10.964291 10.873292 0.453539
H -11.792659 11.348096 0.521357
H -11.150747 10.011102 0.825149
O -0.833787 -10.554055 -2.632458
H -0.465346 -10.802670 -1.784711
H -1.046669 -9.625558 -2.538613
O -4.510793 1.194730 15.196398
H -4.579229 1.471333 14.282593
H -4.653259 1.995627 15.700877
O -1.436011 -3.961342 -7.273856
H -2.207272 -3.680372 -6.781470
H -1.334507 -4.887187 -7.053083
O 8.841629 -7.316041 12.696783
H 8.988678 -6.615917 13.332735
H 7.928722 -7.209539 12.429408
O 0.014385 8.928979 2.037038
H 0.325898 8.522346 1.228433
H 0.812383 9.177789 2.503432
O -2.035156 2.335320 -8.120500
H -1.369870 2.985381 -7.894566
H -2.342452 2.597994 -8.988143
O 7.289022 6.084822 6.652879
H 7.123080 6.438137 7.526871
H 6.439013 5.754253 6.362290
O -19.706941 11.788887 8.740301
H -19.793239 12.037222 9.660689
H -20.533661 11.354479 8.530410
O -1.250324 -0.099265 -8.321597
H -1.504054 0.823621 -8.309978
H -2.032443 -0.566893 -8.028601
O 3.869963 -10.926210 2.389197
H 4.189818 -11.699228 2.854350
H 3.264946 -10.509954 3.003133
O -1.688682 8.437453 -11.042225
H -1.984537 9.095516 -10.413214
H -1.271362 8.942822 -11.739848
O 0.110490 -7.081448 -15.675691
H 0.231664 -6.365741 -16.299640
H -0.799055 -7.354009 -15.796809
O -3.731631 2.590351 -4.605970
H -3.955345 2.015877 -5.338202
H -4.399602 3.275662 -4.625832
O 0.126742 -11.743247 -0.235340
H -0.638291 -12.156059 0.165337
H 0.477597 -12.410019 -0.825720
O 6.634781 -1.319321 -8.990950
H 6.465992 -1.993801 -9.648840
H 5.845606 -0.777638 -8.994651
O 1.337701 -9.438570 0.552478
H 0.813846 -10.216651 0.361697
H 0.819129 -8.710335 0.210444
O 6.280785 11.935482 2.177268
H 7.032530 12.264527 1.684479
H 5.673598 11.621238 1.507337
O 2.980049 22.057313 7.030937
H 2.558804 21.322528 7.476892
H 2.267170 22.497950 6.568471
O 7.846013 -4.747983 10.564605
H 8.477021 -5.361867 10.188830
H 7.054538 -5.269367 10.698615
O -5.961536 -7.286630 2.213502
H -6.603299 -7.748717 1.674200
H -6.486901 -6.809532 2.855842
O -14.622575 -11.934527 5.973216
H -15.162608 -12.541772 5.467401
H -13.726787 -12.247002 5.846114
O -5.637492 -4.666259 4.813936
H -4.703291 -4.683371 5.021802
H -6.018392 -5.350499 5.364356
O 4.473367 -6.063937 8.063058
H 4.584876 -6.154228 9.009444
H 4.062504 -6.884374 7.790465
O 1.696540 -9.273766 -3.529434
H 0.789362 -9.578418 -3.550606
H 1.664777 -8.398344 -3.915256
O -5.213432 3.280069 -13.684811
H -5.773806 3.661223 -14.360779
H -5.666090 3.469450 -12.862943
O -2.097977 -17.539900 3.554196
H -1.409210 -17.779300 2.934099
H -2.267708 -16.614342 3.378792
O -5.076669 1.300058 -2.524267
H -5.810329 1.899987 -2.389876
H -4.599048 1.667805 -3.267820
O -3.542023 -7.257983 -3.041204
H -3.170572 -6.381827 -3.144193
H -4.472964 -7.106327 -2.878168
O -7.049355 -17.307832 -4.150205
H -7.028879 -18.228623 -4.410890
H -7.080521 -16.825192 -4.976231
O -0.232000 -0.166226 -5.902552
H -0.641519 -0.129731 -6.766956
H -0.116630 -1.100819 -5.730918
O 8.195350 -15.974646 -6.335749
H 7.542224 -15.366762 -5.989144
H 7.706313 -16.533732 -6.939486
O -8.199939 -6.632480 4.088499
H -8.108603 -6.185327 4.929893
H -9.137272 -6.810760 4.011978
O 10.578526 0.601687 -6.378192
H 11.106214 0.457608 -7.163697
H 9.938234 -0.109794 -6.385384
O 3.061939 11.219566 -2.175876
H 2.775336 12.089893 -2.452681
H 3.763578 11.386811 -1.546620
O -0.700955 -1.425332 -3.156600
H -0.808701 -1.722333 -4.060156
H -0.986689 -0.511852 -3.168555
O -6.979470 4.452227 14.885719
H -6.301565 4.483709 14.210674
H -7.334064 3.564970 14.828540
O -1.364812 1.080026 -2.630137
H -0.523814 1.447372 -2.358087
H -1.737402 1.740376 -3.214385
O 1.243379 1.721834 -2.170535
H 1.605235 1.492414 -3.026489
H 1.262871 0.903387 -1.674554
O 1.100833 4.444896 -6.842860
H 0.992009 4.071979 -7.717687
H 0.453000 3.989154 -6.305418
O 8.686152 4.053095 3.854389
H 7.931091 4.605759 3.652702
H 8.306974 3.209953 4.102515
O 0.508317 -5.078042 -17.546225
H 0.143362 -4.478401 -16.895479
H 1.448822 -4.900369 -17.535488
O -2.189557 -4.996889 -18.296800
H -2.664024 -4.165595 -18.288845
H -1.267693 -4.746482 -18.357585
O 0.544394 -0.235667 -0.183002
H 0.744013 0.219627 0.634978
H -0.313731 -0.632539 -0.033516
O -5.756366 13.415203 5.097713
H -6.389524 13.533288 5.805808
H -5.890184 12.514088 4.803917
O -13.883008 -6.699108 -4.612190
H -14.249615 -6.178342 -3.897604
H -14.526652 -6.626302 -5.316926
O 4.070607 -1.126396 9.619831
H 4.438798 -1.356441 10.472912
H 3.814826 -1.964633 9.234907
O -6.444602 2.648579 -6.744854
H -5.875549 1.878899 -6.746737
H -6.088222 3.212200 -7.431554
O 4.276919 8.084257 0.411335
H 5.195785 7.844175 0.291847
H 3.816278 7.628784 -0.293354
O 6.838842 1.856987 -1.337148
H 6.005981 2.254042 -1.082348
H 7.116222 1.364528 -0.564636
O -3.633380 -17.764632 -3.624733
H -2.917489 -17.252135 -3.249128
H -4.384321 -17.576478 -3.061778
O -9.542244 11.398556 5.024853
H -8.761023 10.927921 5.315418
H -9.408870 11.528357 4.085920
O 7.537290 0.677189 0.968855
H 7.604259 0.583248 1.919077
H 8.433245 0.561342 0.652508
O 0.384101 -2.790967 -5.743198
H 1.263910 -3.142990 -5.878284
H -0.157102 -3.242501 -6.390846
