351
Lattice="15.441776 0.0 0.0 0.0 15.441776 0.0 0.0 0.0 15.441776" Properties=species:S:1:pos:R:3 pbc="T T T" model=tip4pew T=300.0 t_ps=32.0
O -4.194525 -1.472654 8.686033
H -3.403047 -2.010274 8.713588
H -4.413404 -1.320484 9.605363
O 2.108894 -17.149450 -1.700103
H 2.897634 -16.617359 -1.595224
H 1.438725 -16.686932 -1.196931
O 2.774401 8.788909 3.894037
H 3.167464 9.523780 4.364885
H 3.518422 8.322235 3.513407
O -6.096044 0.195007 -12.200513
H -5.792231 -0.548110 -11.679258
H -5.327600 0.759551 -12.284267
O -0.983469 -2.697841 -0.336901
H -1.928974 -2.755864 -0.199479
H -0.882752 -2.065835 -1.048699
O 1.079909 -10.133829 -8.794237
H 1.386890 -10.754261 -9.455341
H 0.491956 -9.547318 -9.270207
O 4.158703 4.178200 -2.302286
H 3.856816 5.079340 -2.188074
H 3.451468 3.747174 -2.782147
O -10.497837 -7.754095 -3.658392
H -11.029301 -6.961140 -3.729111
H -10.935572 -8.387858 -4.226692
O -4.742657 3.422857 -1.904711
H -5.385094 3.600556 -1.217739
H -4.771334 4.197480 -2.466289
O -4.972144 5.861643 -3.260469
H -4.852034 5.444304 -4.113484
H -4.583932 6.730709 -3.361699
O 5.314229 0.921631 4.126257
H 5.628634 0.095197 3.759668
H 6.108438 1.432858 4.281536
O -10.237277 -13.388979 -0.562055
H -10.613553 -12.694489 -1.102732
H -10.502310 -13.168209 0.330833
O -0.390177 -0.570447 2.711896
H 0.091364 -0.507044 3.536717
H -0.143319 -1.423566 2.354852
O -1.526949 5.166431 10.179941
H -2.061643 4.390334 10.012586
H -1.597528 5.307457 11.124061
O 17.173806 0.495560 -4.719637
H 16.494654 0.288358 -5.361549
H 17.876064 -0.128385 -4.903371
O -12.154537 -4.213659 -6.070743
H -12.932436 -4.437311 -6.581707
H -12.181946 -4.806680 -5.319873
O 7.237858 -9.059847 -5.712973
H 7.795283 -8.328674 -5.446712
H 7.030049 -9.513130 -4.895917
O -3.541310 6.646546 8.967218
H -3.794594 6.475278 8.060165
H -2.667219 6.264972 9.048441
O -2.289479 -3.439321 5.799621
H -1.975497 -3.120332 6.645726
H -2.341450 -2.655924 5.252063
O 9.728255 -6.269522 6.207849
H 8.805446 -6.172472 6.442872
H 9.900428 -7.207192 6.293659
O -3.038122 -10.378388 5.283426
H -3.010342 -11.301857 5.533756
H -2.670708 -10.358116 4.399781
O -7.219144 5.325780 6.220321
H -7.865433 5.186813 6.912586
H -7.740425 5.461411 5.429055
O -4.417753 5.248831 1.582730
H -4.935253 5.744176 2.217599
H -5.058967 4.711828 1.117214
O 3.569159 11.076390 -9.928467
H 3.266948 11.975360 -10.057903
H 4.186870 11.133477 -9.199491
O -3.444605 -13.946281 2.404627
H -3.749966 -14.354980 1.594719
H -2.706114 -13.400522 2.134422
O 3.530060 3.695137 -7.085619
H 3.628906 3.131220 -7.852731
H 2.595625 3.660400 -6.881034
O 9.807618 6.993045 -12.319060
H 10.088035 7.123963 -11.413268
H 8.977980 7.466004 -12.384185
O -5.549825 8.340730 -5.904403
H -5.221166 8.712303 -5.085777
H -4.911795 7.665337 -6.134608
O 0.446708 12.508207 1.909776
H 0.079511 12.541024 1.026418
H 0.152555 11.667710 2.260875
O -8.037814 -5.715625 7.416216
H -8.812377 -6.258094 7.564582
H -7.651074 -5.606750 8.285013
O 7.852887 2.211142 4.093814
H 8.219223 1.422749 3.693231
H 8.105616 2.151822 5.015139
O 10.425059 13.752298 -4.134556
H 10.069257 14.610527 -3.904165
H 9.729586 13.332138 -4.640533
O 0.413532 2.103198 2.903260
H -0.264986 2.647168 2.503333
H 0.097634 1.206298 2.793667
O 9.751759 11.409979 -1.883997
H 9.759107 11.826669 -2.745709
H 8.903203 11.647192 -1.509946
O 4.563792 21.954314 17.815921
H 5.117288 21.535813 17.156580
H 3.727759 21.492061 17.755904
O 10.479547 -8.922879 6.713428
H 11.044426 -9.498578 6.197953
H 9.600943 -9.285935 6.601727
O 5.301944 -1.783593 3.095693
H 4.848464 -1.673609 2.259935
H 5.959359 -2.458078 2.925080
O 5.673607 12.408717 11.741677
H 6.452463 12.221744 11.217601
H 5.585781 11.650922 12.319835
O 12.369343 -8.641492 -0.219243
H 11.914918 -9.212671 0.400018
H 11.695038 -8.035229 -0.525822
O 3.075015 -3.715788 1.152887
H 2.190933 -3.529672 1.469102
H 3.458276 -2.853806 0.990621
O 4.204848 1.964792 6.443743
H 4.447547 1.215507 6.987710
H 4.458105 1.709416 5.556683
O -3.918940 10.058607 8.361932
H -4.254262 9.896570 7.480152
H -4.363570 9.412219 8.910309
O -1.369004 -6.733888 -6.921973
H -1.537412 -7.384387 -7.603678
H -2.143707 -6.171746 -6.930029
O 11.880514 -3.094675 0.291608
H 11.201616 -3.354447 -0.331168
H 11.557889 -3.399973 1.139510
O -1.030510 -8.389972 -9.382416
H -1.737142 -8.877556 -9.805695
H -1.055985 -7.525610 -9.792856
O 3.142431 9.800479 11.641381
H 2.348378 9.497933 11.200727
H 2.827261 10.224019 12.439825
O 7.409297 2.781329 -6.373790
H 6.856582 3.283676 -6.972443
H 6.940187 1.956309 -6.249254
O -9.030661 4.592974 -3.705111
H -9.809297 4.606987 -3.148549
H -9.029068 3.718155 -4.093596
O -10.545317 2.252050 -4.908843
H -10.839512 2.752850 -5.669685
H -11.346604 1.875666 -4.544830
O 4.285798 -0.648708 -7.382432
H 4.012700 -1.143480 -8.154993
H 3.833807 -1.073387 -6.653334
O 2.365704 4.996673 2.392512
H 1.521378 5.151284 1.968907
H 2.154139 4.473099 3.165391
O -11.838832 -1.304715 5.325984
H -12.663665 -1.013238 4.937497
H -11.223361 -1.327746 4.593251
O 5.888507 -5.037040 -17.217502
H 5.211367 -5.494102 -16.718696
H 6.346413 -4.503757 -16.567761
O 1.172821 0.078304 5.324139
H 1.587846 0.837192 5.734109
H 0.420577 -0.115201 5.883529
O 3.567597 -9.217214 -5.240666
H 3.804281 -10.144591 -5.254293
H 2.671793 -9.203087 -4.903669
O 3.938147 -1.174796 0.703774
H 4.428617 -1.165547 -0.118167
H 3.179771 -0.615074 0.537012
O 4.929024 -1.013167 -1.732693
H 5.733395 -0.501482 -1.646685
H 5.087369 -1.584739 -2.484001
O -1.214037 1.617037 -1.423154
H -2.118800 1.705317 -1.123419
H -1.221339 0.840603 -1.982910
O 3.193661 6.754755 13.610042
H 2.413880 7.059698 13.146165
H 3.926064 7.059039 13.074106
O -7.833700 -3.010137 -0.355879
H -7.182194 -2.324139 -0.210346
H -7.932811 -3.431944 0.497636
O -6.128652 10.037656 2.105255
H -6.525116 9.398586 2.697402
H -5.316276 10.296337 2.540412
O 13.252094 3.876514 2.227437
H 13.932682 4.469900 1.909749
H 12.431536 4.338268 2.055104
O -8.671904 6.459064 15.881515
H -8.167179 6.438233 15.068465
H -8.300230 5.754928 16.412819
O -10.532180 9.731304 2.408752
H -11.386120 10.144889 2.282397
H -10.420604 9.171504 1.640372
O -1.528006 -9.982103 -2.543371
H -0.947523 -10.467829 -1.957418
H -2.229870 -9.663379 -1.975890
O -4.105942 1.014606 14.816403
H -4.412573 0.690442 13.969569
H -4.392946 1.927402 14.842175
O 1.478474 -4.792881 -8.032480
H 2.073734 -4.719055 -8.778434
H 0.652810 -5.092357 -8.413038
O 7.743655 -6.849715 12.267726
H 7.510800 -6.360170 13.056621
H 6.977183 -7.394259 12.088217
O 0.311589 9.634138 2.774772
H -0.134358 9.076949 2.136882
H 1.178221 9.239867 2.873420
O -2.920229 2.396617 -10.390826
H -3.216697 1.642728 -9.880934
H -3.153151 2.181989 -11.294106
O 5.999995 4.822194 7.800802
H 6.385714 5.302634 8.533353
H 5.055230 4.903800 7.931157
O -17.478700 11.786996 8.894175
H -17.314589 11.828818 9.836274
H -18.236094 11.208070 8.807976
O -1.321188 -0.029954 -8.913828
H -1.908311 0.717444 -8.800188
H -1.678572 -0.503875 -9.664766
O 4.597711 -12.547299 1.985186
H 4.347314 -13.284680 2.541785
H 3.936625 -11.877968 2.161800
O -0.760095 9.667815 -10.246950
H -1.329601 10.431296 -10.152121
H -0.357560 9.774253 -11.108848
O -1.040620 -7.179183 -14.628607
H -0.757359 -6.595925 -15.332742
H -1.831475 -7.598405 -14.967773
O -3.488708 2.567656 -6.393881
H -3.645382 2.012574 -7.157798
H -4.229988 3.173109 -6.381080
O 0.031097 -11.388157 -1.079242
H -0.352634 -12.258683 -0.973570
H 0.741650 -11.513834 -1.708171
O 6.989844 -0.873766 -7.378085
H 7.189667 -1.470952 -8.098968
H 6.033632 -0.857914 -7.337612
O -0.278448 -9.816767 1.245239
H -0.242307 -10.257992 0.396565
H -0.426837 -8.895779 1.030775
O 7.130142 11.525832 2.329438
H 7.902503 10.986093 2.497875
H 6.399860 10.907030 2.331422
O 3.611340 22.648418 6.915759
H 2.931089 22.169336 7.389015
H 3.188041 22.926650 6.103578
O 7.334987 -5.113291 10.248858
H 6.460482 -5.463595 10.079270
H 7.689197 -5.675382 10.937931
O -8.105965 -7.319733 2.763458
H -8.381617 -7.859500 2.022580
H -8.528700 -7.720681 3.522910
O -13.224345 -12.075273 4.604160
H -13.846157 -12.692635 4.218874
H -12.530550 -12.627208 4.965060
O -4.369810 -4.661380 4.111484
H -3.797886 -4.376657 4.824272
H -4.930878 -5.329010 4.506079
O 5.107057 -6.922976 8.850594
H 5.291164 -7.552194 9.548034
H 4.485914 -7.373717 8.278540
O 0.822483 -8.256149 -3.256661
H 0.002314 -8.625009 -2.928794
H 0.553207 -7.506712 -3.787761
O -6.387929 4.019025 -15.434074
H -6.843128 4.413013 -16.178250
H -7.088764 3.696889 -14.867249
O -2.636428 -16.766190 4.395177
H -3.487296 -16.840686 3.963081
H -2.015751 -16.625117 3.680272
O -5.598484 0.707842 -2.983353
H -6.476756 0.630185 -2.610741
H -5.371236 1.630963 -2.871825
O -4.078232 -6.641838 -3.238457
H -3.302693 -6.152432 -3.512779
H -4.555646 -6.036609 -2.671002
O -6.963505 -18.140440 -5.528123
H -7.352493 -19.007627 -5.414512
H -7.601587 -17.658218 -6.053999
O -0.612950 -0.445260 -6.004053
H -0.659759 -0.424298 -6.959878
H -0.299185 -1.325880 -5.798399
O 8.483777 -14.118674 -8.652557
H 8.560503 -13.611263 -7.844548
H 8.239550 -14.997359 -8.361870
O -9.401133 -8.836567 4.724105
H -9.998707 -8.465971 5.373564
H -9.972450 -9.145241 4.020863
O 11.198866 0.600211 -8.495569
H 11.190542 -0.157934 -7.911292
H 10.278841 0.852196 -8.574868
O 2.416108 11.023800 -1.463682
H 2.164019 11.945028 -1.527117
H 2.876812 10.958109 -0.627221
O -1.030540 -0.710256 -2.858512
H -0.192579 -0.875865 -3.290515
H -1.622011 -0.462329 -3.569093
O -7.331598 5.794324 13.575322
H -6.530806 5.987542 13.087848
H -7.921058 5.410536 12.926110
O -2.789475 0.381583 -4.566134
H -2.124703 0.098864 -5.194130
H -3.171868 1.166483 -4.958484
O 1.969348 3.398436 -4.025754
H 1.552796 3.904800 -4.723115
H 1.790883 2.485754 -4.252456
O 0.929871 3.988513 -6.625648
H 0.903944 4.489412 -7.440914
H 0.150519 4.269730 -6.146316
O 7.033562 4.284543 2.206516
H 7.440453 3.930707 2.997384
H 6.133915 3.958723 2.233139
O -0.079417 -5.284808 -16.364867
H -0.429010 -4.406257 -16.215988
H 0.802973 -5.137466 -16.705322
O -1.572096 -5.504144 -18.695238
H -2.157877 -4.747870 -18.729023
H -1.322041 -5.573045 -17.773849
O 0.810129 -0.348205 0.180375
H 0.533573 -0.525751 1.079388
H 0.050522 0.068534 -0.226514
O -5.506391 13.494827 4.542877
H -5.887070 13.334423 5.406351
H -5.126597 12.653956 4.288074
O -15.090799 -6.167249 -4.888462
H -15.827454 -5.827598 -4.380319
H -15.495134 -6.574004 -5.654814
O 3.428704 -1.800615 10.291418
H 4.249552 -1.935380 10.764999
H 3.320392 -2.594748 9.768109
O -5.687618 4.251858 -5.900213
H -6.461727 3.689087 -5.883580
H -5.965050 5.027241 -6.388111
O 4.633698 8.389172 -0.008622
H 5.218587 7.631496 -0.000707
H 3.761186 8.017467 -0.138199
O 7.416247 0.523978 -1.602151
H 6.786721 1.134749 -1.218891
H 7.772859 0.045716 -0.853603
O -2.707366 -18.395719 -3.425760
H -2.206072 -17.617383 -3.182595
H -3.577051 -18.061945 -3.645926
O -7.843988 12.225000 5.985491
H -7.711536 11.506103 6.603451
H -8.297288 11.823699 5.244068
O 8.707735 -0.364749 0.642774
H 8.663561 -0.481038 1.591857
H 9.545137 0.074236 0.493499
O 0.438035 -2.646211 -5.116937
H 1.388793 -2.623012 -5.008528
H 0.269637 -3.464638 -5.583898
