351
Lattice="15.130121 0.0 0.0 0.0 15.130121 0.0 0.0 0.0 15.130121" Properties=species:S:1:pos:R:3 pbc="T T T" model=tip4pew T=300.0 t_ps=24.0
O -4.132546 -1.711974 4.703178
H -3.741319 -2.584426 4.747900
H -4.838739 -1.732242 5.349021
O 4.108549 -14.372222 -1.445521
H 3.869724 -13.817776 -0.702699
H 4.871012 -14.864871 -1.141912
O 3.078761 8.854665 4.104114
H 2.936736 8.914742 3.159417
H 3.855401 8.302644 4.195413
O -3.887060 1.263459 -13.573111
H -3.489459 0.395279 -13.506714
H -3.618544 1.712336 -12.771462
O 0.273942 -2.424367 -0.946699
H -0.554352 -2.047194 -1.243180
H 0.943045 -1.957495 -1.447263
O 1.677013 -7.912813 -4.531934
H 1.965944 -8.808118 -4.708514
H 1.046151 -7.722873 -5.226317
O 3.171550 2.567505 0.906023
H 2.268287 2.781795 1.139320
H 3.495221 2.054037 1.646172
O -8.739405 -7.523405 -1.878686
H -9.447077 -7.151033 -2.404778
H -8.406043 -8.250190 -2.404885
O -2.267450 2.828389 -0.033561
H -2.886846 2.142638 0.216088
H -2.099172 2.673029 -0.962958
O -3.700304 4.579448 -3.277906
H -4.326128 4.996423 -2.685701
H -4.165707 4.514375 -4.111811
O 7.579211 -1.319823 3.448585
H 7.058961 -1.326791 4.252029
H 7.913267 -0.424940 3.386742
O -7.393705 -10.614406 -0.326959
H -8.314530 -10.843409 -0.200975
H -7.229904 -9.919300 0.310402
O 3.593562 -3.807402 5.012438
H 4.368660 -4.077107 5.505097
H 3.286271 -4.609705 4.590402
O -6.221631 0.524360 7.403098
H -5.973966 0.813555 8.281312
H -6.102780 -0.425269 7.420721
O 14.345852 1.720403 -4.796674
H 14.234690 2.356037 -5.503670
H 14.538213 0.895913 -5.243268
O -12.264269 -3.665543 -3.460597
H -11.821783 -3.453128 -4.282374
H -13.195352 -3.557033 -3.654356
O 5.841585 -8.886680 -6.412453
H 6.755906 -8.617046 -6.325574
H 5.612348 -9.238459 -5.552259
O -0.744322 3.389617 7.846390
H -1.228241 4.033932 7.329755
H -1.021451 2.543379 7.495231
O -3.222565 -1.272062 2.048856
H -3.540762 -1.478859 2.927615
H -2.538346 -1.920475 1.882612
O 11.400794 -6.637551 5.152244
H 10.892010 -6.730346 4.346788
H 10.770119 -6.797668 5.854271
O 0.641208 -11.417558 5.704785
H -0.157561 -11.151638 5.249277
H 0.370057 -11.536725 6.615009
O -7.618223 6.096249 2.617033
H -8.400458 6.455373 2.198261
H -7.949014 5.405219 3.190868
O -3.937899 4.927176 1.072073
H -4.365102 5.227754 0.269962
H -3.289085 4.289658 0.774006
O 2.263814 12.002989 -7.708413
H 2.559826 11.541833 -8.493234
H 1.475454 11.532912 -7.436847
O -3.603943 -12.871808 4.082671
H -3.247994 -13.535502 4.673468
H -2.929157 -12.193750 4.049017
O 1.738172 2.156192 -3.803574
H 1.898402 1.257835 -3.514588
H 0.801934 2.181338 -4.001206
O 6.294711 2.989255 -13.193288
H 5.973831 3.284202 -12.341071
H 7.079932 2.480542 -12.991122
O -2.032344 6.459718 -6.108207
H -1.662607 5.894242 -5.430149
H -2.948419 6.189737 -6.172621
O -1.520091 11.672943 1.337413
H -0.791591 12.033827 0.832158
H -1.892371 10.996256 0.771962
O -5.767262 -2.142556 1.304103
H -4.909157 -1.749807 1.464212
H -6.316923 -1.817126 2.016984
O 8.533111 1.323012 2.807530
H 9.394208 1.173854 2.417022
H 8.708892 1.865934 3.576014
O 10.179126 9.266442 -4.246390
H 10.811744 9.964577 -4.415603
H 10.573323 8.750699 -3.542935
O 2.026014 4.432054 9.605718
H 1.306660 4.174954 9.028950
H 2.005490 3.790332 10.315650
O 7.036522 10.522234 -3.889700
H 7.673029 10.192348 -3.255456
H 6.688670 11.318669 -3.488550
O 4.487544 20.173699 15.365759
H 3.948300 20.338232 14.592211
H 4.262270 19.281712 15.630038
O 7.644260 -11.351295 8.413462
H 7.530757 -11.898352 7.636238
H 6.954616 -10.691041 8.345008
O 5.840194 -1.819198 1.324387
H 6.486387 -1.530326 1.968762
H 6.009446 -1.275985 0.554643
O 4.371932 11.988858 9.375917
H 3.645787 12.260244 8.814406
H 4.586018 11.103925 9.080464
O 13.132850 -8.205259 1.763334
H 12.329616 -8.694417 1.585088
H 13.352476 -8.426104 2.668444
O 1.575489 -0.727185 1.105273
H 1.341440 -0.891548 0.191798
H 0.795006 -0.322581 1.483921
O 4.155876 0.967556 4.977295
H 4.079120 0.191596 5.532476
H 3.858230 0.676378 4.115405
O -5.458845 7.507784 7.275442
H -5.953647 7.228140 8.045638
H -5.333908 6.706722 6.766599
O -2.325851 -4.210598 -5.075066
H -1.918268 -5.065702 -4.937565
H -2.049525 -3.951606 -5.954156
O 11.745349 -4.642830 -0.464754
H 11.523298 -4.949897 0.414242
H 10.910781 -4.358906 -0.837735
O -1.003744 -6.486535 -4.794311
H -1.078492 -7.188063 -5.441229
H -0.948217 -6.940443 -3.953409
O 4.105310 8.416636 11.773999
H 3.833411 9.329386 11.678132
H 3.409573 7.913293 11.351119
O 3.831325 0.837818 -5.989104
H 3.065605 0.772570 -5.418449
H 4.551239 1.063158 -5.399887
O -9.706664 1.421007 -3.728095
H -10.056079 1.260964 -2.851438
H -9.038958 0.745588 -3.847304
O -6.004617 -2.452578 -4.941514
H -5.768720 -3.261173 -5.396221
H -6.857549 -2.213378 -5.304174
O 1.558598 -2.260495 -11.353556
H 2.341991 -2.489152 -10.853312
H 1.893901 -1.932841 -12.188089
O 5.492442 7.362331 5.162532
H 5.736257 6.479592 4.884041
H 5.155715 7.249141 6.051371
O -9.288145 -4.544675 6.345464
H -8.737283 -5.134702 5.831022
H -9.417080 -5.000792 7.177068
O 5.056557 -2.747923 -17.323545
H 5.389256 -3.563464 -16.948794
H 4.162015 -2.955336 -17.593742
O -1.504797 0.896210 7.462348
H -0.988922 0.132247 7.204538
H -2.401008 0.678054 7.206523
O 3.159242 -9.363797 -2.043978
H 2.230982 -9.588866 -1.981454
H 3.165847 -8.443146 -2.305875
O -0.162722 0.886614 3.092495
H -0.853442 0.414272 3.557287
H 0.485508 1.088867 3.767123
O 6.727382 -1.143537 -5.471580
H 6.015055 -1.776932 -5.384206
H 6.639641 -0.805107 -6.362646
O -1.388992 4.122869 3.706882
H -0.788975 3.947539 2.981988
H -1.253144 5.047798 3.912510
O 5.050195 4.758994 10.887970
H 4.880844 3.817088 10.907111
H 4.526379 5.111676 11.607320
O -6.154938 -1.225701 -2.362934
H -5.586844 -0.456283 -2.401621
H -6.214288 -1.526039 -3.269855
O -3.957796 8.979437 1.774310
H -4.588153 8.409733 1.333492
H -3.124938 8.512314 1.708159
O 10.126206 6.193559 3.406785
H 9.187359 6.253183 3.230026
H 10.471713 5.659876 2.691215
O -6.654025 7.903268 15.531683
H -7.540526 7.870067 15.172175
H -6.474786 8.836991 15.642443
O -10.949500 11.436321 2.034318
H -10.252337 12.076004 1.889404
H -11.190124 11.547814 2.954047
O -2.350416 -12.786712 -2.769233
H -1.835707 -12.912321 -3.566434
H -2.907063 -12.031601 -2.959455
O 0.367803 2.916637 16.539148
H 0.221351 2.273724 17.233011
H -0.494140 3.041817 16.142140
O 0.105023 -0.729376 -5.317543
H -0.643962 -1.144108 -5.745620
H 0.442400 -1.398956 -4.722505
O 5.731471 -5.688129 8.987508
H 6.386586 -5.416617 9.630422
H 5.419078 -6.534952 9.306150
O 0.567535 8.859658 5.543684
H -0.118806 8.394333 5.065521
H 1.347064 8.766221 4.996111
O -4.906022 4.869943 -9.273645
H -4.993587 5.258578 -10.144005
H -5.401643 4.052645 -9.324791
O 3.710231 6.299768 6.975690
H 4.269191 6.066329 7.716839
H 3.522732 5.465990 6.544539
O -18.342662 11.216438 5.720637
H -17.475223 11.159128 5.320015
H -18.754411 10.375267 5.522834
O -3.735191 0.594964 -9.008195
H -4.512572 0.637843 -8.451353
H -3.751982 -0.288534 -9.376137
O 3.052942 -10.415733 4.659705
H 2.271232 -10.742808 5.104882
H 2.719838 -9.998940 3.865000
O -1.461713 7.107854 -10.668920
H -1.619469 6.472029 -9.971015
H -2.061613 7.828633 -10.477008
O -0.767556 -3.576862 -11.010579
H -1.123128 -3.558957 -11.899106
H 0.170951 -3.427080 -11.124598
O -1.968715 5.398798 -8.720889
H -2.867694 5.074582 -8.666549
H -1.836728 5.878421 -7.903104
O 2.163519 -9.422489 2.149481
H 1.459019 -9.703732 1.565689
H 2.934179 -9.363978 1.584777
O 6.398905 -2.026888 -9.013792
H 6.332150 -2.975893 -8.908128
H 5.569401 -1.688900 -8.676276
O 0.406440 -8.140257 0.041576
H 1.030112 -7.738936 0.646726
H -0.433470 -8.096544 0.498602
O 6.552157 14.430620 -1.168920
H 7.503678 14.353053 -1.238373
H 6.216622 13.621289 -1.554446
O 1.361664 24.958104 9.122616
H 0.604710 24.510518 9.500662
H 1.636214 24.395449 8.398549
O 9.089661 -5.026341 6.968716
H 8.504629 -5.170783 6.225005
H 9.290049 -5.905221 7.290656
O -4.851394 -8.796778 -1.197376
H -4.320309 -8.109470 -1.599605
H -5.684388 -8.369996 -0.996853
O -11.024061 -11.778152 8.175655
H -11.199626 -11.267423 8.965950
H -11.266056 -12.674062 8.410208
O -6.562929 -4.858307 2.398162
H -6.627307 -3.946050 2.115543
H -5.674649 -4.939872 2.745348
O 1.318970 -7.834947 7.901354
H 2.128457 -8.261903 7.620870
H 0.836702 -7.677972 7.089561
O -1.103671 -10.264277 -3.700305
H -2.046047 -10.376347 -3.575404
H -0.905335 -9.423285 -3.288448
O -5.723945 2.554158 -16.125871
H -5.516487 2.034410 -15.349305
H -6.328681 3.225817 -15.810591
O 0.149122 -16.012054 5.925759
H 0.781453 -15.294217 5.892604
H 0.167802 -16.389146 5.046166
O -5.449546 2.221685 -5.676627
H -6.256900 2.712278 -5.522579
H -5.248729 1.818688 -4.831940
O -6.638627 -8.162421 -5.348564
H -6.229834 -7.397930 -4.942764
H -6.689928 -8.809088 -4.644702
O -5.970461 -17.208767 -8.588180
H -5.909416 -18.066237 -8.167169
H -6.894297 -17.122034 -8.823206
O -1.389420 -2.321113 -7.327086
H -2.107391 -2.446766 -7.947538
H -0.616916 -2.190992 -7.877120
O 6.003389 -12.544872 -8.839997
H 5.285287 -12.332223 -8.243891
H 5.647582 -13.225632 -9.411135
O -9.773637 -7.229181 0.751075
H -10.009608 -7.991561 0.222562
H -10.561567 -6.685682 0.753520
O 9.290674 2.427046 -9.749121
H 10.132948 2.399915 -10.203070
H 9.281669 1.634513 -9.212425
O 1.645288 10.250098 -1.322636
H 1.200491 11.013285 -0.953946
H 2.261243 10.615021 -1.957981
O -1.923364 -0.915523 -1.975565
H -2.144211 -0.817275 -2.901743
H -2.696548 -1.324266 -1.586532
O -7.514440 5.039183 11.804207
H -7.495687 4.659060 12.682493
H -8.394548 4.849297 11.479267
O -3.251581 -1.473125 -4.466698
H -2.736875 -2.219912 -4.772673
H -4.161676 -1.755021 -4.558861
O 0.061405 1.346224 -1.321736
H -0.810562 1.318664 -1.715621
H 0.020429 2.071639 -0.698578
O 0.805934 4.470240 -1.768497
H 0.208569 4.253186 -2.484231
H 1.414579 3.732383 -1.731768
O 5.700811 4.646192 4.347540
H 6.010793 4.092364 5.064071
H 4.748497 4.551301 4.365587
O 2.948927 -5.826820 -14.028382
H 3.387085 -5.005709 -13.804717
H 2.458918 -5.627786 -14.826196
O -3.218333 -6.791448 -17.047840
H -2.306625 -6.792045 -17.339422
H -3.325316 -5.954285 -16.596237
O 1.675562 1.268328 5.217482
H 2.619932 1.409022 5.285332
H 1.287844 2.031305 5.646169
O -5.793132 11.323324 -0.944130
H -6.029586 11.655594 -0.078151
H -5.909367 12.072431 -1.528561
O -15.506951 -7.787586 -2.678189
H -15.279586 -8.007612 -1.774792
H -14.680090 -7.851536 -3.156146
O 4.099674 -0.931592 7.116109
H 3.970632 -0.306982 7.829861
H 3.432361 -1.602432 7.260677
O -4.384793 4.986046 -5.999189
H -5.113023 5.603915 -6.063622
H -4.723176 4.175713 -6.380094
O 6.247960 10.242725 -0.605288
H 6.196276 9.388687 -1.034449
H 6.193710 10.045133 0.329723
O 3.715251 0.371575 2.515806
H 4.442985 -0.238536 2.395803
H 3.035992 0.055008 1.920302
O 0.374078 -18.149002 -3.819717
H 0.069814 -18.873699 -4.366041
H 0.229780 -18.448194 -2.922001
O -7.508744 9.071376 4.864583
H -7.300536 9.238001 3.945281
H -8.167041 8.376936 4.839501
O 10.313416 1.085994 -3.156929
H 11.239268 1.305248 -3.052246
H 9.870406 1.579411 -2.466629
O 1.833303 -0.462185 -2.111590
H 1.193322 0.207147 -1.869413
H 2.678492 -0.086362 -1.865331
