351
Lattice="15.108422 0.0 0.0 0.0 15.108422 0.0 0.0 0.0 15.108422" Properties=species:S:1:pos:R:3 pbc="T T T" model=tip4pew T=300.0 t_ps=20.0
O -4.164465 -1.763325 4.883092
H -4.533383 -2.409676 5.485058
H -3.639273 -1.188836 5.440199
O 5.796209 -12.959357 -1.529077
H 6.722429 -12.902036 -1.294425
H 5.365709 -13.270478 -0.732769
O 2.616997 9.021663 3.320000
H 2.814899 9.393468 2.460449
H 3.402192 9.190101 3.840892
O -4.578879 0.164078 -12.577661
H -4.020583 -0.596534 -12.738925
H -4.019649 0.774770 -12.097505
O 3.005637 -2.314282 -0.321280
H 2.146082 -1.987791 -0.587364
H 3.230529 -2.966532 -0.984776
O -0.934908 -7.102683 -4.053280
H -1.048557 -6.920544 -3.120466
H -0.117573 -7.598371 -4.103174
O 1.732858 1.932846 2.364742
H 1.927595 2.342938 1.522047
H 2.366584 1.219065 2.436429
O -8.642311 -6.622164 1.066944
H -8.900568 -6.346477 0.187437
H -8.611437 -7.577692 1.019549
O 0.497475 1.238381 -1.314602
H 0.042042 1.332104 -2.151280
H 0.083081 1.883993 -0.742156
O -3.257598 3.157987 -2.198895
H -3.203572 4.072025 -1.919883
H -4.195908 2.986628 -2.279157
O 8.071893 -1.113943 3.433834
H 7.627950 -1.576172 4.144812
H 9.003868 -1.252115 3.602842
O -6.909776 -12.457445 0.077821
H -7.003571 -12.632841 1.014127
H -6.486407 -11.600007 0.035511
O 4.953147 -5.063703 4.422714
H 4.824437 -4.186444 4.062044
H 5.109804 -4.918934 5.355844
O -1.505304 2.600949 8.100839
H -0.808865 2.319419 7.507589
H -1.852882 3.398446 7.701564
O 14.822495 4.109652 -4.431532
H 13.985665 4.531540 -4.626360
H 15.301669 4.133110 -5.259828
O -13.831819 -4.791720 -3.233612
H -14.475172 -5.128402 -2.609934
H -14.341904 -4.585849 -4.016978
O 6.102495 -7.173927 -6.053006
H 5.163727 -7.044465 -6.187861
H 6.196462 -8.115319 -5.907460
O 0.971069 3.061310 5.918197
H 1.040971 2.300347 5.341759
H 0.848533 3.801865 5.324232
O -3.069554 -1.806935 1.334924
H -3.091217 -2.675530 1.736552
H -3.046649 -1.978353 0.393477
O 10.976167 -4.504238 5.963535
H 11.018649 -4.523792 5.007478
H 11.803937 -4.891303 6.248507
O 1.864153 -10.528128 3.315855
H 2.336663 -11.359176 3.267630
H 2.519538 -9.896235 3.611515
O -7.516890 5.744675 1.178685
H -7.460632 5.561164 2.116443
H -8.317682 5.303405 0.895411
O -0.896454 3.211310 -0.007209
H -1.789550 2.993291 -0.273818
H -0.959065 3.369556 0.934741
O 1.756261 11.883809 -8.856617
H 0.964629 11.762340 -9.380827
H 1.802906 11.101174 -8.307492
O -2.602176 -13.648418 4.130935
H -3.073685 -13.116882 4.772325
H -2.074203 -13.019191 3.639458
O 3.009611 2.517651 -5.637515
H 3.946520 2.425633 -5.810618
H 2.692944 1.618930 -5.546660
O 5.204054 4.684430 -14.378516
H 5.189165 4.022022 -13.687701
H 4.361453 4.587453 -14.822194
O -2.465773 5.735410 -5.122353
H -1.985074 6.562924 -5.102827
H -3.302515 5.933954 -4.702026
O -0.512948 12.869382 1.130448
H -0.409640 13.173735 0.228823
H -1.455572 12.911499 1.291439
O -6.555053 -1.485245 0.391115
H -5.906032 -0.933241 -0.045114
H -6.708333 -1.055997 1.232830
O 5.397513 3.121490 3.274143
H 5.665595 3.852959 3.830306
H 4.668310 2.717212 3.744307
O 9.161163 9.432916 -1.110758
H 8.960606 9.881537 -0.289328
H 8.693401 9.934436 -1.778521
O 1.328746 4.333400 8.429782
H 1.029457 3.975175 7.594119
H 1.940839 3.678807 8.766059
O 5.451887 10.022916 -4.276685
H 5.791394 9.197741 -4.623171
H 5.075648 9.790094 -3.427881
O 4.110288 15.329670 15.109672
H 3.609101 14.810625 14.480676
H 4.695868 14.699007 15.528709
O 8.341814 -11.009145 8.948702
H 8.485596 -11.864770 9.353010
H 7.491383 -10.725181 9.283910
O 5.661049 -1.440449 1.823372
H 6.416527 -1.411165 2.410422
H 5.584655 -2.362066 1.576353
O 4.705579 13.915341 8.162816
H 4.391206 13.792844 7.267050
H 4.431844 13.122358 8.623771
O 13.384950 -7.617752 1.010582
H 12.905379 -8.336346 0.598435
H 12.841031 -7.362439 1.755699
O 2.326412 -2.570747 2.198901
H 2.909105 -2.485396 1.444306
H 1.485974 -2.229768 1.892912
O 6.709224 -2.613532 5.148995
H 5.925258 -2.081939 5.286974
H 6.878734 -3.016676 6.000448
O -5.234623 8.286791 10.815018
H -4.786555 8.336151 11.659429
H -5.426439 7.356192 10.699156
O -1.901599 -2.593759 -6.654346
H -2.693967 -3.108489 -6.807440
H -2.202761 -1.830462 -6.161486
O 11.907414 -2.509111 -1.375786
H 12.050346 -3.389892 -1.029335
H 11.118424 -2.587288 -1.912084
O -3.034666 -6.015488 -5.924270
H -3.770821 -6.454123 -5.497765
H -2.367845 -5.946546 -5.241021
O 2.265454 7.699566 11.239418
H 1.799897 8.381889 11.723076
H 2.585983 7.102444 11.915390
O 5.598965 3.019586 -7.862906
H 4.974997 2.536553 -8.404732
H 5.697285 2.484631 -7.075259
O -10.022678 0.406321 -3.281773
H -9.692794 1.004844 -2.611565
H -10.963785 0.354353 -3.114892
O -7.426701 -3.673821 -5.048237
H -8.029302 -4.318260 -4.677021
H -6.929215 -4.160924 -5.705101
O 0.284051 -3.909133 -11.106819
H 0.490154 -4.843186 -11.142866
H 0.973064 -3.491229 -11.623393
O 6.613638 7.629760 6.424177
H 7.411609 7.772293 5.915100
H 6.861534 7.843193 7.323747
O -9.458246 -4.085917 7.185398
H -8.848256 -4.713024 7.573831
H -9.986009 -3.776873 7.921733
O -0.270544 -2.004151 -19.059107
H -0.894433 -1.403172 -19.466315
H -0.389157 -2.828826 -19.530354
O 0.931312 0.442515 5.073656
H 0.918967 -0.032991 5.904303
H 0.245287 0.028584 4.549955
O 2.856965 -8.752149 -1.424351
H 2.064438 -9.280956 -1.332179
H 2.792614 -8.099733 -0.726895
O -0.894899 -0.859278 3.628004
H -1.699012 -0.340122 3.638541
H -0.744053 -1.049320 2.702066
O 5.367433 1.204955 -5.803098
H 5.281309 0.324084 -6.167626
H 5.418708 1.069189 -4.856964
O -0.545334 3.282194 2.817110
H -0.240815 4.007832 3.362041
H 0.254314 2.823360 2.559690
O 5.844845 5.099670 9.585201
H 5.572666 4.756544 10.436327
H 5.084422 4.967829 9.018980
O -9.728516 -2.235845 -3.250740
H -9.950837 -1.305386 -3.218313
H -9.101816 -2.307899 -3.970662
O -2.258366 7.867414 4.277537
H -2.087881 8.284532 5.122036
H -2.902490 8.435530 3.854950
O 8.360108 4.941029 3.663116
H 7.812955 4.618903 4.379419
H 8.612897 4.153482 3.181349
O -5.996309 5.510563 14.152990
H -6.318904 5.804732 15.004828
H -6.728483 5.659376 13.554652
O -9.515268 11.003585 1.373938
H -9.240242 11.119688 0.464481
H -9.263735 10.105150 1.587893
O -1.443061 -13.571904 -3.443071
H -1.123751 -12.899146 -4.044460
H -2.190695 -13.166158 -3.004158
O 3.111349 2.898315 15.178487
H 2.792380 3.031612 14.285894
H 3.328094 1.966871 15.219291
O 2.340527 -0.133243 -5.649612
H 3.084418 -0.397900 -6.190736
H 1.571862 -0.430966 -6.136180
O 3.815392 -3.373552 9.236248
H 4.295786 -3.820171 9.933373
H 2.894332 -3.476040 9.475778
O 0.898924 8.479291 5.257608
H 0.703228 7.633823 5.661487
H 1.572792 8.283969 4.606468
O -5.202359 6.068999 -7.698545
H -5.604553 6.516207 -8.443177
H -5.909108 5.543094 -7.324164
O 3.465155 8.060095 8.745150
H 3.025398 7.880913 9.576257
H 3.544045 7.203282 8.325770
O -19.304671 9.197282 2.683872
H -18.816232 9.970489 2.966379
H -20.095105 9.549115 2.274410
O -3.667889 4.006505 -10.050013
H -3.131957 4.470612 -10.693141
H -3.677973 4.582495 -9.285574
O 3.870127 -8.024319 5.315913
H 4.641020 -7.601037 5.693787
H 4.036385 -8.028294 4.373271
O -0.860954 6.114789 -9.505811
H -1.407132 5.793055 -8.788588
H -1.476138 6.537930 -10.104755
O -2.914951 -3.647499 -11.659240
H -1.981476 -3.602271 -11.452328
H -3.302883 -2.915829 -11.179240
O -2.690057 5.147227 -7.628669
H -3.549965 5.550001 -7.749351
H -2.496806 5.268031 -6.698996
O 4.056809 -8.435142 2.296483
H 3.220648 -8.266537 1.862156
H 4.551392 -8.961947 1.668712
O 8.322313 -1.598056 -6.797791
H 7.367819 -1.625234 -6.731202
H 8.631216 -1.914630 -5.948914
O 1.486805 -7.889585 1.508414
H 1.371346 -7.238106 2.200133
H 0.625175 -7.958267 1.097187
O 3.897676 10.998447 -2.301474
H 3.212577 10.692191 -2.895679
H 4.359979 11.674804 -2.796499
O -1.905508 24.190701 6.682084
H -2.156750 24.184963 7.605706
H -0.948455 24.178571 6.693632
O 8.915152 -5.376839 8.317740
H 9.620026 -5.153812 7.709756
H 9.211401 -6.181046 8.744025
O -3.372805 -9.258038 -0.715260
H -3.299157 -8.499049 -1.293830
H -4.265786 -9.575827 -0.848775
O -11.491194 -9.552822 7.785767
H -12.352766 -9.914414 7.993557
H -11.606715 -9.131787 6.933936
O -5.940094 -4.211812 1.071617
H -6.064089 -3.320387 0.745703
H -6.436870 -4.239638 1.889340
O 1.408857 -5.580021 7.717622
H 2.053394 -6.093122 8.204994
H 1.341686 -6.021094 6.870760
O 0.008585 -9.842841 -1.932606
H -0.135772 -10.462793 -2.647485
H -0.166674 -10.347419 -1.138303
O -4.935224 0.575999 -15.323931
H -4.551214 0.391687 -14.466728
H -5.605809 1.236397 -15.149510
O 0.385295 -16.108441 7.603002
H 0.766682 -16.934226 7.304918
H -0.551187 -16.199227 7.426956
O -5.480968 1.877374 -4.677324
H -5.343496 1.430007 -5.512307
H -5.141965 1.269158 -4.020528
O -8.392057 -9.129741 -2.140870
H -8.696678 -8.249387 -1.920838
H -9.162517 -9.566517 -2.503983
O -5.262832 -14.424926 -7.171697
H -5.380751 -13.963420 -8.001961
H -5.803143 -15.210643 -7.255025
O -2.679413 0.193644 -7.531987
H -2.335508 1.083497 -7.453738
H -3.593165 0.264347 -7.255778
O 6.391370 -10.350546 -9.708844
H 6.509766 -9.434960 -9.456027
H 6.048331 -10.774323 -8.922097
O -7.227844 -4.937948 3.488591
H -7.699773 -4.220900 3.912098
H -7.878034 -5.635071 3.401963
O 8.987546 2.644302 -9.102640
H 8.231756 3.017484 -8.649045
H 9.554462 3.394495 -9.281664
O -3.727036 8.155733 -2.124249
H -3.351901 9.017302 -1.942030
H -4.558921 8.151180 -1.650774
O -2.359312 -0.474996 -5.018610
H -2.218161 -0.091090 -5.884014
H -2.208001 0.246726 -4.408321
O -10.110191 4.307235 12.044031
H -9.857469 3.498565 12.489470
H -11.067127 4.286934 12.034393
O -5.632938 -2.794877 -3.053358
H -6.015005 -3.311748 -3.762653
H -5.613103 -1.899929 -3.392336
O 0.108214 -1.454544 -1.320019
H 0.070708 -1.794886 -2.213882
H 0.213212 -0.509197 -1.427377
O 2.322451 3.686024 -3.068488
H 1.426921 3.993555 -3.208775
H 2.537433 3.201502 -3.865516
O 7.719229 1.903649 2.768304
H 7.797582 1.203275 3.416045
H 6.790005 2.133294 2.774371
O 2.929380 -5.110918 -14.401655
H 2.191818 -4.502279 -14.443984
H 3.637773 -4.602441 -14.006861
O -3.190690 -5.163129 -15.208333
H -3.180083 -5.508361 -14.315621
H -4.108495 -5.215526 -15.475015
O 3.553425 1.949763 5.649780
H 3.158724 1.403472 4.970068
H 2.809416 2.364479 6.086466
O -8.381477 11.561281 -1.148041
H -7.501167 11.830129 -1.410734
H -8.963041 12.181612 -1.587591
O -15.744063 -7.271776 -1.432637
H -15.565326 -8.203991 -1.556172
H -16.170241 -7.220445 -0.577085
O 4.039502 -1.723228 5.372159
H 3.835358 -1.326042 4.525518
H 3.338586 -2.359490 5.514001
O -5.394544 5.445606 -3.963967
H -6.095724 5.547017 -3.320310
H -5.727826 4.794442 -4.581332
O 5.573576 8.716429 -1.424536
H 5.645380 9.667270 -1.341013
H 4.656887 8.526527 -1.224910
O 3.592374 -0.258695 2.975395
H 4.304244 -0.622492 2.448970
H 2.934335 -0.953325 3.001955
O -0.012620 -19.331825 -5.459369
H 0.376627 -19.770969 -6.215590
H -0.746812 -18.835817 -5.821545
O -6.243182 7.676910 4.947315
H -6.337147 6.902438 4.392702
H -5.814812 8.323360 4.386214
O 10.531616 -0.289894 -2.955312
H 11.417973 -0.607636 -3.127482
H 10.493833 -0.187615 -2.004342
O 2.303049 -0.255464 -2.829792
H 1.776353 0.446560 -2.447713
H 1.905627 -0.414931 -3.685863
