351
Lattice="15.057057 0.0 0.0 0.0 15.057057 0.0 0.0 0.0 15.057057" Properties=species:S:1:pos:R:3 pbc="T T T" model=tip4pew T=300.0 t_ps=12.0
O -0.874053 -4.885217 6.396039
H -1.302329 -4.029875 6.361355
H -1.205131 -5.286985 7.199283
O 8.308143 -12.512477 -1.854105
H 9.220279 -12.519399 -2.144265
H 8.236611 -13.266865 -1.269287
O 3.385414 6.765893 -0.510683
H 3.587226 6.692572 0.422123
H 4.236498 6.887484 -0.931520
O -6.608951 -0.336750 -10.916263
H -6.233144 -0.655970 -11.736689
H -5.852102 -0.080096 -10.389443
O 3.000956 -2.737843 3.436928
H 3.180503 -3.658434 3.245861
H 3.855447 -2.310092 3.381206
O -1.688559 -6.391242 -1.930704
H -0.953585 -6.448524 -1.320160
H -1.376177 -6.826642 -2.723847
O 1.059012 2.160374 4.026255
H 1.091809 1.207718 4.113448
H 1.808983 2.376610 3.472163
O -6.273002 -8.660751 1.658523
H -5.406726 -8.474632 1.296366
H -6.386821 -9.603255 1.536198
O -0.163509 2.196127 -2.547700
H -0.314547 2.391251 -1.622850
H -0.530041 2.947180 -3.014396
O -3.254405 5.103851 -1.567257
H -3.745210 4.346836 -1.887054
H -3.614018 5.845837 -2.053433
O 7.494472 2.290631 3.559173
H 6.951945 1.690046 4.070243
H 8.227548 1.754162 3.257457
O -7.192553 -11.103560 0.660094
H -7.945845 -11.524295 1.074539
H -7.360506 -11.181914 -0.278993
O 9.179521 -4.843404 -2.100955
H 8.607775 -4.546783 -1.392891
H 8.586502 -5.245018 -2.735988
O -1.854139 -0.088637 6.652307
H -2.086750 -0.078845 7.580762
H -1.830575 -1.017066 6.420585
O 14.863862 4.450512 -4.247108
H 14.071954 4.517212 -4.780647
H 15.539363 4.152706 -4.856404
O -9.823586 -7.915961 -2.441327
H -9.398152 -8.725882 -2.722868
H -9.313875 -7.220253 -2.856558
O 7.079403 -4.851997 -6.638034
H 6.411474 -5.532854 -6.718880
H 7.909891 -5.317619 -6.736614
O -0.773026 2.236152 5.955640
H -1.233734 1.432608 5.714193
H -0.101223 2.339374 5.281654
O -3.921893 -2.362350 2.608868
H -4.744220 -2.808278 2.405993
H -3.565881 -2.115410 1.755341
O 9.441229 -4.780523 5.379420
H 9.410279 -5.500961 4.749943
H 9.349160 -5.203603 6.233094
O -1.887093 -9.761252 1.965104
H -1.103106 -9.791179 1.416743
H -2.494127 -9.197679 1.485389
O -8.887193 5.515179 4.179463
H -8.120489 5.071213 3.817124
H -9.516389 4.812597 4.342933
O -1.212887 1.758857 0.016828
H -2.075984 1.429035 -0.233197
H -1.286002 1.935705 0.954704
O 1.826235 9.914522 -3.229048
H 2.240501 9.904190 -2.366199
H 1.890418 9.010460 -3.536918
O -3.766004 -12.187487 3.561722
H -3.620123 -11.282719 3.838030
H -3.044739 -12.374143 2.960750
O 3.026069 1.100648 -2.151732
H 2.671291 1.963286 -2.366721
H 2.306621 0.648218 -1.711352
O 6.456567 7.963033 -11.625689
H 7.375023 8.231390 -11.600105
H 6.457278 7.071399 -11.277521
O -2.275855 4.542530 -6.128050
H -2.116224 4.786752 -7.039700
H -3.158079 4.865150 -5.944124
O -2.127350 10.405619 2.643593
H -2.717227 11.115654 2.896829
H -2.253060 9.737377 3.317300
O -6.900064 0.265617 -0.409935
H -6.841114 -0.257938 0.389219
H -7.639457 -0.109284 -0.888453
O 4.098169 1.437357 7.647085
H 3.211947 1.224792 7.939760
H 4.664863 0.860325 8.159064
O 11.809128 11.267421 -1.905821
H 10.896879 10.979987 -1.868203
H 11.833390 11.895085 -2.628097
O 1.742434 3.717369 9.180870
H 1.594490 2.898391 8.707984
H 2.659894 3.676319 9.450708
O 5.411506 8.055125 -5.685679
H 4.567174 8.298859 -6.065060
H 5.606973 7.198535 -6.065519
O 2.980343 14.227317 16.504534
H 2.952552 13.501558 17.128019
H 3.405636 13.861328 15.729028
O 8.253288 -12.118341 7.982687
H 9.081995 -12.302564 8.424885
H 7.604519 -12.630106 8.465831
O 8.013799 -2.039091 1.653105
H 8.356272 -2.932510 1.625805
H 7.114657 -2.136221 1.966699
O 5.001492 11.716096 11.990068
H 4.575049 11.699491 11.133270
H 5.712597 12.349295 11.891978
O 11.310806 -8.431865 0.739851
H 11.556691 -7.511129 0.650306
H 11.604096 -8.838958 -0.075310
O 4.848382 -4.084624 0.568592
H 4.025152 -4.423259 0.216668
H 5.072700 -3.353436 -0.006975
O 6.942270 -3.931448 4.580087
H 6.259149 -4.600610 4.537660
H 7.758124 -4.425970 4.657941
O -4.813162 8.005515 10.104763
H -4.671132 8.138328 11.042004
H -4.604024 7.082931 9.958709
O -1.388619 -2.838535 -6.307544
H -1.152941 -3.280025 -5.491594
H -2.299904 -3.088089 -6.460888
O 11.681642 -1.551431 0.155471
H 12.479337 -1.880820 -0.258557
H 10.979977 -2.085856 -0.216400
O -3.707311 -3.960480 -6.119611
H -4.613778 -3.670886 -6.016245
H -3.698984 -4.851995 -5.771237
O 2.468154 7.545496 10.485171
H 3.383696 7.377868 10.708589
H 2.457946 7.585542 9.528863
O 5.127942 3.949290 -8.257204
H 6.065139 4.002450 -8.069941
H 4.874635 3.072894 -7.967381
O -8.614775 1.030211 -5.648056
H -9.163075 0.658725 -4.956973
H -8.582780 0.349974 -6.320727
O -6.231894 -2.960158 -5.738575
H -6.908209 -3.416407 -6.239241
H -6.075308 -2.152273 -6.227487
O 4.044631 -3.378073 -8.939643
H 3.365388 -4.020645 -9.144485
H 4.374754 -3.097451 -9.793166
O 4.435110 9.937128 3.197655
H 5.108132 9.271014 3.337532
H 4.612480 10.277023 2.320590
O -5.766384 -6.596670 3.471077
H -5.621328 -5.936852 2.792968
H -5.852800 -7.419875 2.990350
O -0.177010 -0.560656 -18.600850
H -0.693080 -1.215030 -18.130001
H -0.049907 0.145797 -17.967604
O -2.411094 -2.597456 5.329723
H -3.302107 -2.931151 5.224958
H -2.237386 -2.118474 4.519393
O 2.961619 -10.001306 -2.679622
H 2.385186 -9.528422 -3.279902
H 3.150825 -9.372442 -1.983229
O 0.879978 -0.701570 4.527337
H 1.306993 -1.403895 4.036796
H 1.277664 -0.740224 5.397155
O 4.150577 -0.235945 -4.193230
H 3.656980 0.270635 -3.548272
H 3.526687 -0.886067 -4.516239
O -1.211518 2.558282 2.528664
H -1.016158 3.429412 2.183412
H -0.385708 2.260665 2.910364
O 3.269309 8.142609 7.659214
H 2.876263 8.930387 7.283511
H 2.798256 7.418960 7.246089
O -6.919986 0.397641 -3.487464
H -6.974617 1.201022 -2.969944
H -7.261315 0.642544 -4.347551
O -3.689641 7.420630 6.626904
H -4.327740 8.030833 6.996653
H -3.214802 7.935876 5.974769
O 3.162985 5.082506 5.275905
H 3.904030 4.672226 5.721724
H 2.627746 4.348334 4.974670
O -7.433600 4.806249 11.569836
H -7.035913 5.340401 12.257410
H -7.450714 3.920946 11.933398
O -5.741044 13.090128 -1.348596
H -6.129979 13.920844 -1.074966
H -6.330911 12.760791 -2.026700
O -4.237439 -12.414716 -2.731353
H -3.809295 -12.713116 -3.533776
H -3.957544 -13.040281 -2.063103
O 3.155702 2.004668 17.290760
H 2.944513 2.489108 16.492670
H 3.046154 1.084925 17.049297
O 1.073440 -1.396356 -5.693527
H 0.305086 -1.658094 -6.200830
H 0.713564 -0.974466 -4.913315
O 5.373699 -2.484748 8.634864
H 5.563264 -3.395127 8.407915
H 4.642423 -2.243004 8.066509
O 1.991352 8.791639 2.542719
H 1.442175 9.541661 2.314457
H 2.877895 9.149287 2.591308
O -6.336773 3.858356 -9.808185
H -6.315627 3.313814 -9.021255
H -6.619930 3.264488 -10.503437
O -0.855428 7.530893 10.772523
H -0.176417 6.856231 10.769725
H -1.141549 7.587197 9.860823
O -17.225654 8.558801 4.711787
H -16.571478 9.204915 4.977911
H -16.723197 7.759484 4.554111
O -4.051721 5.473828 -10.396150
H -4.072665 6.324553 -9.957902
H -4.894316 5.073028 -10.182553
O 3.788371 -8.477252 2.203583
H 3.399474 -7.782722 2.735203
H 4.539747 -8.778335 2.714480
O -0.366581 6.329271 -10.836896
H -0.503873 5.779939 -10.065134
H -1.050069 6.057617 -11.449497
O 0.489129 -4.462013 -13.527597
H -0.273920 -4.678470 -12.991747
H 0.301983 -3.587826 -13.869658
O -1.786251 4.679493 -8.769618
H -2.610395 4.814390 -9.237402
H -1.624017 3.738462 -8.835740
O 1.232895 -10.157843 2.228830
H 0.982118 -9.603712 2.967939
H 1.988674 -9.715251 1.842640
O 6.648434 -0.640920 -7.780536
H 6.202735 -1.355009 -7.324839
H 7.365861 -1.066571 -8.249953
O 0.122946 -7.527864 0.071296
H 0.162617 -8.362705 -0.395287
H 0.480899 -7.720077 0.937988
O 4.593117 13.407050 -0.879720
H 4.880204 14.282217 -1.140285
H 4.612130 12.897201 -1.689612
O -1.186893 23.077404 7.927759
H -1.855548 22.521670 7.527394
H -0.376975 22.842542 7.474874
O 9.289403 -6.465620 7.718964
H 9.541734 -6.611237 8.630751
H 8.720449 -7.205423 7.506327
O -3.226410 -5.673998 0.567121
H -2.737492 -5.272540 1.285468
H -2.814116 -5.330240 -0.225391
O -13.440136 -8.923374 7.229382
H -12.997156 -9.274421 6.456876
H -13.469207 -9.657046 7.843476
O -5.772671 -4.695999 1.225422
H -6.430436 -5.030312 0.615659
H -4.948830 -5.078161 0.922983
O 1.679955 -5.132300 5.496782
H 0.811680 -4.894830 5.822263
H 1.510790 -5.587896 4.672133
O -0.379269 -9.905023 -1.292707
H -0.022701 -9.991419 -2.176803
H -1.318082 -10.060338 -1.396334
O -5.251580 2.130973 -13.686180
H -4.738348 2.473307 -12.954311
H -5.833957 2.850960 -13.928433
O -4.300408 -14.141465 5.397798
H -4.106518 -13.456381 4.758034
H -3.441603 -14.449062 5.687748
O -4.164189 2.044104 -6.132526
H -3.654600 2.841908 -6.274158
H -3.557978 1.446722 -5.694489
O -8.560358 -9.692296 -5.924125
H -8.127021 -9.628826 -5.072995
H -9.395359 -10.121196 -5.736911
O -4.597004 -15.689209 -6.725998
H -4.301628 -15.779209 -7.632025
H -4.610026 -14.744812 -6.570513
O -6.349275 -2.226778 -8.498193
H -6.236273 -1.709727 -9.295765
H -6.211911 -3.131952 -8.777520
O 8.199702 -9.006668 -7.896624
H 8.199172 -9.680549 -8.576415
H 7.622760 -9.352373 -7.215553
O -9.298258 -1.793273 3.587824
H -9.085246 -0.970925 4.028960
H -8.675443 -2.425926 3.945714
O 5.511779 0.848392 -9.866833
H 5.946157 0.439630 -9.118194
H 4.635771 1.064631 -9.547328
O -4.313550 7.910433 -2.282941
H -3.417748 8.144572 -2.040147
H -4.786641 8.742543 -2.286025
O -2.349079 0.444015 -4.759500
H -3.027021 -0.218324 -4.625584
H -1.580712 0.095830 -4.307160
O -10.755856 3.783298 9.961605
H -10.352265 2.998959 10.333302
H -11.058430 4.280581 10.721467
O -3.787215 -1.642166 -3.787506
H -4.321023 -2.137554 -4.408692
H -4.420794 -1.245201 -3.189821
O 0.970284 -0.122535 -0.237362
H 0.214509 0.425010 -0.024687
H 1.291488 -0.428210 0.610943
O 2.253836 3.186534 -0.106781
H 1.481667 3.436164 0.400833
H 2.390600 3.916740 -0.710375
O 5.581834 2.642326 1.418456
H 6.072728 2.307991 2.169105
H 4.682999 2.350229 1.570136
O 7.100129 -5.784610 -15.062564
H 6.902337 -6.682364 -14.795826
H 6.257435 -5.425649 -15.340494
O -0.828653 -2.298576 -15.316541
H -0.356538 -1.467468 -15.367519
H -0.567888 -2.771575 -16.106797
O 1.017004 1.411068 8.141852
H 0.874825 0.495503 8.382179
H 0.348936 1.592169 7.480703
O -7.653489 12.839293 -3.304642
H -7.160082 12.530232 -4.064420
H -7.572055 13.792469 -3.337143
O -12.617839 -5.308406 -0.455319
H -12.713845 -6.259843 -0.497552
H -13.228808 -5.035701 0.229211
O 2.332158 -1.208832 6.849866
H 2.355395 -1.311900 7.801217
H 2.810491 -1.967123 6.514568
O -4.891849 5.344047 -5.967164
H -5.598562 5.062973 -5.385969
H -5.339621 5.718226 -6.725928
O 6.934922 9.403506 -3.433000
H 6.604944 9.028083 -4.249336
H 6.294489 10.076413 -3.202189
O 2.925389 -3.152666 10.295283
H 2.163265 -2.656999 9.995763
H 2.556864 -3.936333 10.703068
O -0.444961 -18.731453 -2.493141
H 0.247892 -19.288409 -2.848086
H -1.240244 -19.258330 -2.571608
O -6.365078 6.281805 -1.551501
H -6.656634 6.033587 -0.674224
H -5.632980 6.879777 -1.400854
O 11.379455 0.905192 -0.814649
H 11.486697 -0.044857 -0.768394
H 10.873054 1.127855 -0.033489
O 5.571077 1.232391 -1.115575
H 5.589798 1.497998 -0.196154
H 4.649307 1.297092 -1.365346
