38
liquid_oh_00_0: target O0-H1...O3, R=2.798 angle=160.9, 5 shell + 5 env waters, counter-ion 0
O   0.00000000  0.00000000  0.00000000
H   0.31772700 -0.86958300  0.24312100
H  -0.45411700  0.31656800  0.78089300
O   1.40510400 -2.22811900  0.94406100
H   0.70627200 -2.81618500  0.65762800
H   2.08003900 -2.31145300  0.27045100
O   3.28509100 -2.50815600 -0.89537800
H   3.37841000 -3.44899100 -0.72887300
O   4.86935000 -3.72127500  1.42122000
H   4.65036900 -2.86322800  1.05785300
H   4.93931200 -4.29443700  0.65779100
O   0.97941700 -3.12624500 -1.93619200
H   1.84687800 -2.90788000 -1.59551600
H   0.74533400 -2.38236900 -2.49124800
O   2.67425300 -0.07324100 -1.85029400
H   1.88688200  0.11494300 -1.33954400
H   2.92723500 -0.95726700 -1.58434200
O   3.89398500 -2.99935400 -3.45520800
H   3.09936400 -2.91042600 -3.98142100
H   3.60781800 -2.82919700 -2.55777400
O   5.57299400 -1.61176200 -0.84726300
H   4.66574100 -1.91079100 -0.78639300
H   5.60774000 -1.11543200 -1.66499200
O   1.54096700 -1.14433100  3.27579400
H   2.19182700 -0.46146300  3.43797900
H   1.80881800 -1.53891100  2.44585800
O  -0.40569900  1.64003200  2.06648900
H  -0.93686000  2.42826800  2.17955500
H  -0.04661600  1.46577600  2.93650400
O  -0.71449100 -3.82970500  0.17418000
H  -0.32521400 -3.43778700 -0.60754600
H  -1.52738600 -4.22827600 -0.13658500
O  -1.08242600  1.25182200 -2.22012900
H  -1.05033400  0.53666100 -2.85554000
H  -0.77702800  0.85984700 -1.40201000
O   1.73897900  2.47325200 -0.76923900
H   2.67934900  2.29464800 -0.77516200
H   1.34282400  1.66299600 -0.44864600
