41
liquid_oh_07_0: target O0-H1...O3, R=2.849 angle=161.7, 5 shell + 6 env waters, counter-ion 0
O   0.00000000  0.00000000  0.00000000
H  -0.41536200 -0.24990200  0.82538200
H   0.54747700  0.75226000  0.22495900
O  -1.46665900 -1.19787800  2.12804100
H  -1.59941600 -1.87326900  1.46286800
H  -2.35104100 -0.93930800  2.38735300
O  -1.65623900 -3.03288100  0.53355500
H  -0.97523700 -2.90602400 -0.13108300
O  -2.04724300 -4.30142000  2.74976700
H  -2.75775700 -4.87119500  2.45522000
H  -1.79543600 -3.80853800  1.96881100
O  -4.25508800 -2.60814000  0.89380200
H  -3.36317100 -2.83432500  0.63006800
H  -4.14252900 -1.96755400  1.59609200
O  -2.18767000 -2.07008400 -1.93897600
H  -1.69197300 -2.68028800 -2.48502200
H  -1.90375400 -2.26264500 -1.04536300
O  -2.99675900 -5.23658700 -0.58187800
H  -3.59083000 -4.87275500 -1.23833600
H  -2.39842600 -4.51852500 -0.37544100
O   0.71038500 -4.22217500  0.91949900
H   0.76521900 -5.05257400  1.39242900
H  -0.22302700 -4.01016900  0.91424800
O  -1.35394200  0.70711900 -2.08111200
H  -0.92374100  0.55984700 -1.23881100
H  -1.58465200 -0.16927400 -2.38923500
O   1.41098300  1.95394100  1.07388100
H   1.12479500  2.43020000  1.85330700
H   2.35897500  2.08381600  1.04788100
O   1.91728300 -2.06869200 -0.65006200
H   1.25207000 -1.39255800 -0.52135200
H   1.54450500 -2.85215800 -0.24577200
O   1.05118900 -1.80833700  3.51790600
H   0.20673700 -1.65005800  3.09591100
H   1.16752800 -2.75740200  3.47349000
O  -4.26155500 -0.76652000  3.08637300
H  -4.10421100 -0.32187900  3.91930100
H  -4.59137100 -0.08011300  2.50646100
O  -1.00640200  1.45732600  3.42376900
H  -0.86639200  1.19215700  4.33278800
H  -1.10287300  0.63371100  2.94566500
