41
liquid_oh_04_0: target O0-H1...O3, R=2.660 angle=169.9, 5 shell + 6 env waters, counter-ion 0
O   0.00000000  0.00000000  0.00000000
H   0.41372000  0.73174200  0.45784400
H  -0.38245800  0.39314500 -0.78447100
O   1.41239900  1.92328100  1.17492300
H   1.74905500  2.22950900  0.33283100
H   1.54002700  2.66369500  1.76799100
O   1.08822700  4.08312600  2.64327300
H   0.68776700  4.30632300  1.79981900
O  -0.14026200  2.19993400  4.13001900
H  -1.04845900  2.33585200  3.85995100
H   0.32991400  2.95686700  3.78041900
O  -1.58419300  4.50830200  2.68128600
H  -0.64553500  4.34274000  2.59329000
H  -1.92719600  4.42397200  1.79164000
O   0.48700700  6.53145700  3.60364700
H   0.22769500  6.42347600  4.51870400
H   0.73107700  5.65111500  3.31788800
O   3.45412600  4.65886000  1.54221000
H   4.10489600  4.03307800  1.86021300
H   2.62842300  4.36143200  1.92428700
O   2.41199200  3.58991700  4.77261800
H   1.77461200  3.12134400  5.31152100
H   1.99348100  3.66294300  3.91486000
O  -0.88610500  1.29528000 -2.10735100
H  -1.82341000  1.47723800 -2.03966400
H  -0.47781800  2.15885100 -2.16881600
O  -0.99913300 -2.46767800  0.06352600
H  -0.75837600 -2.84864900  0.90799500
H  -0.80886400 -1.53437900  0.15830200
O  -2.39298600 -0.01329500  1.87621100
H  -1.81194800 -0.63258200  2.31792400
H  -1.81547800  0.49028900  1.30252100
O   4.00473700  0.23395200  1.40545800
H   3.38714500  0.93792700  1.20738900
H   3.86095700  0.04224300  2.33217700
O   3.14325000  2.60850300 -1.30964400
H   2.44867500  3.21572200 -1.56475800
H   3.14972900  1.94696600 -2.00142300
O   0.11174900 -0.77614200  3.09727800
H   0.09822500 -1.12595500  3.98816600
H   0.06153600  0.17291300  3.21131900
