41
liquid_oh_09_0: target O0-H1...O3, R=3.008 angle=165.8, 5 shell + 6 env waters, counter-ion 0
O   0.00000000  0.00000000  0.00000000
H  -0.14628300  0.14950600 -0.93406700
H   0.44298500  0.79243300  0.30339100
O   0.04642900  0.51754100 -2.96275000
H  -0.00492300  0.05397100 -3.79863100
H   0.41357900  1.37313500 -3.18499000
O   1.02212700  2.89921600 -3.54762000
H   1.83205800  3.38067900 -3.73148300
O  -1.28053300  4.17119900 -3.12846800
H  -0.49091500  3.64897100 -3.26993500
H  -0.95783500  5.00924900 -2.79715400
O   1.41631300  4.70024000 -5.79967100
H   2.15615900  4.23602500 -6.19128800
H   1.05438800  4.08238800 -5.16445300
O  -0.55536700  2.46234100 -5.63642300
H  -0.05541300  2.94562400 -6.29423400
H   0.01870300  2.43503600 -4.87096300
O   0.96588800  3.67757400 -1.04840800
H   0.98993200  3.29910100 -1.92727800
H   0.31243200  4.37471800 -1.10512500
O   3.44678400  1.60428300 -3.56574100
H   3.86324600  1.81468400 -2.72996500
H   2.56785400  1.97699300 -3.49645700
O  -2.17573300  1.72582500 -2.28273800
H  -1.91781800  2.62061500 -2.50423700
H  -1.51491500  1.17479800 -2.70216700
O   1.14097100  2.19127800  1.20209600
H   0.83726000  2.75978600  1.90976200
H   0.92218500  2.66743000  0.40106900
O   2.01918900 -1.50326100 -2.69005600
H   2.57582500 -1.14880300 -3.38341600
H   1.32137200 -0.85604500 -2.58809400
O  -0.34063400 -0.26817500 -5.69094300
H  -0.37575000  0.68767800 -5.65429600
H   0.37648500 -0.45897400 -6.29556500
O  -2.07773600 -1.97487600 -0.06166900
H  -1.49895200 -1.23942700  0.13921900
H  -1.49273900 -2.72965500 -0.12738400
O   1.75012800 -2.08143900  0.95200000
H   1.03238800 -1.49623500  0.70988900
H   2.09503700 -1.71422900  1.76589600
