29
liquid_oh_05_0: target O0-H2...O3, R=2.980 angle=150.0, 4 shell + 3 env waters, counter-ion 0
O   0.00000000  0.00000000  0.00000000
H  -0.64142600 -0.69333100  0.15522900
H  -0.51736500  0.80503600 -0.02197500
O  -1.93804100  2.04038900 -0.97978600
H  -2.14707600  2.82235200 -0.46883700
H  -1.49405600  2.37456800 -1.75916600
O  -0.60957300  2.87403600 -3.11834800
H  -0.21454600  3.74498700 -3.03469700
O  -2.97419700  3.96210000 -3.72375900
H  -2.16609800  3.51302100 -3.47569600
H  -3.61998400  3.26142000 -3.81452700
O   0.70924000  3.16853000 -5.22710600
H   1.21735900  3.97317000 -5.12413900
H   0.16127200  3.12877300 -4.44328000
O  -2.07720700  0.95952800 -3.84806200
H  -2.86488700  1.35857200 -4.21759800
H  -1.50422900  1.69982500 -3.64834200
O   1.03584400  1.11835100 -2.36880000
H   0.49445800  0.65204800 -1.73185900
H   0.45287700  1.78049600 -2.74020900
O  -4.39517600  1.14741900 -1.78332300
H  -3.55234700  1.34289000 -1.37385900
H  -4.16925700  0.82834200 -2.65704100
O   2.33751900 -1.32640900 -0.63506900
H   2.44345500 -1.03885100 -1.54188700
H   1.52518100 -0.91140700 -0.34504800
O  -2.29538600 -1.69867200  0.08620000
H  -2.07254100 -2.60849800  0.28314800
H  -2.69340000 -1.36924800  0.89198900
