41
liquid_oh_06_0: target O0-H2...O3, R=2.825 angle=166.1, 5 shell + 6 env waters, counter-ion 0
O   0.00000000  0.00000000  0.00000000
H  -0.52549700  0.29547100 -0.74349300
H   0.06176800  0.76654100  0.56994100
O   0.01253500  1.99104300  2.00344200
H  -0.26138000  1.26108900  2.55875100
H  -0.73253200  2.59190300  2.01208400
O  -1.92863600  3.67894500  1.88229800
H  -1.98317300  4.63273000  1.97675100
O  -3.00190200  2.36901000  3.72552500
H  -2.50235200  1.56151100  3.60457900
H  -2.53615300  3.02020000  3.20087200
O  -4.33622100  4.71040800  2.07332100
H  -3.70652700  3.99371000  1.99546800
H  -4.94452900  4.57539500  1.34671000
O  -1.66663800  4.43052700 -0.54320800
H  -0.75523600  4.72305000 -0.54601700
H  -1.82501900  4.14734300  0.35732200
O  -3.78395400  2.17623600  0.72081200
H  -3.61327300  2.28981200 -0.21417500
H  -3.03383900  2.58457600  1.15303600
O  -0.29935400  4.45122500  3.75581900
H  -0.70549300  4.06304800  2.98083400
H  -1.03028100  4.82485900  4.24813500
O  -2.19819800 -1.64284000  0.27804000
H  -2.75470400 -1.27215900  0.96297000
H  -1.41874100 -1.08725800  0.27528500
O   1.61695200 -2.20666400 -0.73131000
H   1.78622300 -2.10222200 -1.66761700
H   1.27392500 -1.35740200 -0.45324900
O  -1.17254000  0.64170900 -2.54225900
H  -0.60282500  0.87419600 -3.27547500
H  -1.48814200 -0.23708900 -2.75283300
O   2.75835100  2.12345800  3.03078400
H   1.88037500  2.21324300  2.66020700
H   3.24656200  1.62725200  2.37377500
O  -1.73796000 -0.10497300  3.38657100
H  -2.40771400 -0.17039600  2.70585000
H  -1.82112000 -0.91851200  3.88403600
O   2.98155100  0.88046300  0.44179600
H   3.84538300  0.51989900  0.24174600
H   2.49605100  0.81045600 -0.38016500
