32
liquid_oh_03_0: target O0-H1...O3, R=2.872 angle=150.7, 4 shell + 4 env waters, counter-ion 0
O   0.00000000  0.00000000  0.00000000
H   0.13492400 -0.94049600 -0.11616900
H   0.86858700  0.38374500 -0.12053100
O   0.09735300 -2.57785000 -1.26249900
H   1.01666900 -2.31152500 -1.24975700
H  -0.14918300 -2.54515800 -2.18682700
O   2.53081500 -1.27490400 -1.32029200
H   2.06501000 -1.48954800 -2.13180700
O   1.83936900 -2.41084500  1.00350900
H   1.71822900 -1.68856100  1.61983900
H   2.11987400 -1.98887600  0.19141800
O   2.61130300  1.23258700 -0.46333700
H   3.25739200  1.27172000  0.24183600
H   2.70892100  0.35370300 -0.82976100
O   4.41993900 -0.75336900 -2.84930700
H   5.07163000 -0.25880800 -2.35237700
H   3.71278200 -0.91384000 -2.22448000
O   4.51732400 -1.35925100  0.52059700
H   4.76290400 -2.21565400  0.87059100
H   3.78403000 -1.54145000 -0.06703800
O  -0.42048900 -2.65133800 -3.82895800
H   0.47721900 -2.76808600 -4.13995900
H  -0.50823200 -1.70720500 -3.69801800
O  -1.91348400  2.00415300 -0.60329000
H  -1.34073700  2.73283300 -0.84249300
H  -1.31474800  1.28980300 -0.38545400
O  -0.80333200 -0.05033300 -2.78991000
H  -0.49652400 -0.14883300 -1.88857800
H  -1.52472500  0.57602600 -2.73076400
O  -1.94766100 -3.13080200  0.80385200
H  -1.21520000 -3.08409000  0.18940100
H  -2.14674400 -4.06477400  0.86938600
