32
liquid_oh_02_0: target O0-H2...O3, R=2.669 angle=159.8, 5 shell + 3 env waters, counter-ion 0
O   0.00000000  0.00000000  0.00000000
H   0.14601000 -0.70147000  0.63470600
H   0.77958200 -0.01267400 -0.55527000
O   2.30705200 -0.53597300 -1.22934900
H   2.85345200  0.04408700 -0.69905600
H   2.75628400 -1.38074500 -1.20135900
O   3.44638700 -2.98385100 -1.19204300
H   3.28043100 -3.32963600 -2.07210100
O   3.07672900 -5.08444000  0.39757100
H   3.94865500 -5.25204000  0.75518600
H   3.20088700 -4.34959200 -0.20310700
O   0.94529100 -3.46117400 -1.06379700
H   1.85746300 -3.25326300 -0.86144200
H   0.70490700 -2.84124000 -1.75236700
O   4.80140800 -1.55339800 -3.00303500
H   4.58442000 -0.65935000 -2.73878900
H   4.31192000 -2.10854200 -2.39603500
O   5.57444600 -4.81042000 -1.56939200
H   5.96405100 -4.64425100 -2.42777900
H   4.85985000 -4.17698300 -1.50349800
O   5.16421400 -2.15161300  0.44235500
H   5.19802100 -2.86529100  1.07934200
H   4.52067100 -2.43850200 -0.20554800
O  -1.95835900  0.71731000 -1.81712100
H  -1.58734800  1.54110100 -2.13327300
H  -1.38555800  0.45738400 -1.09561600
O   2.01892400  1.18291400 -3.55902900
H   1.82089600  0.49164000 -2.92724100
H   1.76435000  0.81483000 -4.40516000
O   0.45223700 -1.85964800  2.24609000
H   1.16012900 -2.16844300  2.81156900
H   0.07847500 -2.65753400  1.87204200
