38
liquid_oh_01_0: target O0-H1...O3, R=3.145 angle=150.3, 5 shell + 5 env waters, counter-ion 0
O   0.00000000  0.00000000  0.00000000
H   0.75545900 -0.56429900 -0.16455900
H  -0.49348500 -0.45297000  0.68375700
O   2.01941500 -2.38324700  0.36635400
H   1.47421200 -2.97282600  0.88729700
H   1.89122400 -2.67312900 -0.53684400
O   2.15168100 -2.91195500 -2.37356000
H   1.79395000 -3.51170000 -3.03230400
O   2.41016200 -5.43279900 -1.27184700
H   3.29024400 -5.70753900 -1.52915300
H   2.37926800 -4.49934100 -1.48144800
O  -0.43245900 -2.80073100 -2.42598800
H   0.51749100 -2.77408700 -2.31146400
H  -0.63215400 -2.02844800 -2.95507400
O   2.75939100 -0.42480600 -1.75513300
H   3.00663100 -0.43938800 -0.83053000
H   2.75471300 -1.34552000 -2.01685100
O   1.91930100 -2.03244300 -4.79951300
H   0.99137800 -2.18342800 -4.97949600
H   2.03525500 -2.30769600 -3.89010600
O   4.71047400 -3.24470600 -2.38894900
H   4.98302200 -2.97167700 -3.26496500
H   3.75637300 -3.16851200 -2.39981600
O  -1.92030000  0.08889800 -1.88882100
H  -1.30667200 -0.03164200 -1.16413900
H  -1.36640700  0.30583300 -2.63873700
O   4.44462200 -2.40501700  1.73920100
H   4.79296800 -1.99824700  0.94583700
H   3.49574500 -2.30406300  1.66388000
O  -0.90256900 -0.58518600  2.57790300
H  -1.67986500 -0.03673900  2.68396900
H  -0.32112900 -0.31762200  3.28963900
O   0.97109700  1.71498100  2.08993500
H   0.53182900  0.94715000  1.72427000
H   1.72672600  1.85377600  1.51897700
O   0.13103500 -4.30291600  1.85892100
H  -0.61976500 -3.86567000  1.45723900
H   0.32721500 -5.03197100  1.27051200
