41
liquid_oh_08_0: target O0-H2...O3, R=2.813 angle=154.5, 5 shell + 6 env waters, counter-ion 0
O   0.00000000  0.00000000  0.00000000
H  -0.29362100  0.61426300  0.67282900
H  -0.54717500  0.19719000 -0.76022900
O  -1.45306800  1.36279500 -1.98612900
H  -1.12286700  1.05161700 -2.82896200
H  -1.67917200  2.27996000 -2.14078100
O  -0.53315700  0.84103700 -4.51339500
H  -0.16391600  1.71007800 -4.34010000
O  -0.50139300 -1.53597000 -3.32842700
H   0.31086900 -1.93134700 -3.64487400
H  -0.55638200 -0.69892700 -3.78947600
O  -2.88830900  2.21182000 -4.85165700
H  -2.05377600  1.76072300 -4.72399500
H  -2.91444300  2.86941500 -4.15659000
O  -0.46780500  2.25425000 -6.59549700
H   0.07101100  1.78381200 -7.23157600
H  -0.60232000  1.62742400 -5.88470500
O  -1.42034300 -1.10520700 -6.35594400
H  -1.85507200 -0.77955400 -7.14410100
H  -1.28763900 -0.32618800 -5.81580400
O   2.01549600  0.33299800 -4.78325300
H   2.20615800  0.21939100 -3.85213900
H   1.12842500  0.69200300 -4.80451700
O  -1.01542900 -2.46934600 -0.98637700
H  -0.80043300 -2.07154400 -1.83003700
H  -0.78675800 -1.80082900 -0.34060000
O   1.47088200 -2.35437400  1.05976000
H   1.68950000 -1.99689500  1.92036900
H   1.13356700 -1.60587900  0.56761600
O  -4.08074000  0.29684500 -2.96178000
H  -4.16804600  0.77453900 -3.78665500
H  -3.17330600  0.44316900 -2.69460100
O  -2.21835400  4.18751000 -2.73582800
H  -3.14723500  4.22660900 -2.50804900
H  -1.99588300  5.08290400 -2.99079400
O  -0.75725400  2.20161400  2.10058000
H  -0.31136500  1.74674100  2.81507700
H  -0.61394100  3.13065000  2.28109400
O   2.27333600 -0.43379100 -2.17250700
H   2.93726200 -0.98942700 -1.76421600
H   1.56262800 -0.39911300 -1.53225300
