333
Lattice="14.992819 0.0 0.0 0.0 14.992819 0.0 0.0 0.0 14.992819" Properties=species:S:1:pos:R:3 pbc="T T T" ion=oh T=300.0 t_ps=28.0
O 7.576995 11.660514 6.333896
H 7.522458 12.614299 6.428349
O 2.270568 9.248448 4.538563
H 2.602037 8.417173 4.878184
H 2.664639 9.326981 3.669786
O 5.414646 7.854667 6.285781
H 4.815325 8.060376 7.003229
H 5.526657 8.684114 5.821343
O 7.936703 6.140498 12.253523
H 8.237924 5.326769 12.657682
H 8.730058 6.666523 12.152946
O -4.590296 13.379911 1.864787
H -4.486430 12.884641 2.677284
H -4.170766 12.836902 1.197429
O 7.307433 6.338729 4.729638
H 6.750927 6.709410 5.414568
H 8.086890 6.894311 4.726883
O 12.516576 9.194542 14.332500
H 13.429341 9.435051 14.491391
H 12.532052 8.735498 13.492696
O 13.890597 3.257550 11.495322
H 14.578444 3.161738 12.154048
H 13.144745 2.777861 11.855649
O 9.351061 8.426065 11.815254
H 9.319625 8.852120 12.671829
H 8.523702 8.665455 11.397640
O 25.693750 14.686630 -7.484318
H 25.326321 13.875158 -7.133974
H 26.492225 14.413213 -7.935885
O 16.285143 1.934186 1.213788
H 16.703748 1.155372 1.580462
H 15.956753 1.650890 0.360479
O 6.503729 10.350579 8.177123
H 7.003279 9.543080 8.056177
H 6.969478 11.001769 7.652470
O 14.784920 13.717630 9.289444
H 15.230881 13.000058 8.839509
H 15.458048 14.389938 9.394959
O 16.132327 13.047365 12.186764
H 15.386394 13.165369 11.598639
H 16.728275 12.472782 11.706211
O 13.642512 0.488397 18.632880
H 14.206419 1.198370 18.939765
H 13.804283 0.443690 17.690509
O 21.753275 9.605201 -4.114737
H 21.047572 8.960606 -4.166820
H 21.640310 10.148277 -4.894826
O 7.767671 7.876596 7.838169
H 7.097917 7.811173 7.157448
H 7.684511 7.063057 8.335634
O 14.928462 10.002232 -0.171006
H 15.367262 10.449688 0.552506
H 15.613653 9.879191 -0.827973
O 6.406934 -1.726201 12.224766
H 6.060052 -0.946704 12.658689
H 6.289784 -2.428911 12.864068
O -2.505637 8.862032 4.893394
H -1.641805 8.501468 4.693344
H -2.991137 8.792025 4.071433
O 10.606167 15.140490 14.322139
H 9.880190 14.525074 14.219906
H 11.134378 14.772939 15.030751
O -2.728837 10.105027 7.482382
H -3.606813 10.194812 7.111805
H -2.240626 9.608821 6.825373
O 4.620747 -1.521654 23.877503
H 4.426368 -0.598861 23.713481
H 4.933653 -1.854208 23.036236
O 8.219082 20.578643 9.702088
H 8.091698 20.974169 10.564390
H 9.169378 20.524569 9.600876
O 8.470397 5.874897 1.040406
H 7.702059 5.610766 0.534320
H 8.860256 5.050920 1.332473
O 15.042806 13.324441 -0.465107
H 15.725593 13.118769 0.173432
H 15.501995 13.360689 -1.304192
O 15.364509 6.635806 1.595170
H 16.081694 6.016638 1.459121
H 15.797756 7.459415 1.819218
O -1.472399 15.016310 15.904817
H -1.015931 14.375522 15.359603
H -1.386782 15.841715 15.427733
O 5.317799 2.408277 5.919683
H 6.112045 2.940494 5.966039
H 5.556097 1.669857 5.359163
O 5.169410 12.691977 6.524919
H 5.799104 11.975279 6.447066
H 4.561102 12.556964 5.798308
O 10.762041 12.238860 10.768044
H 10.071140 12.332579 10.112221
H 11.174761 11.399753 10.563609
O 19.280277 7.332268 16.321286
H 19.491285 6.753301 17.053750
H 19.568992 6.852275 15.545089
O 17.182028 4.735603 16.065738
H 16.713104 3.926753 16.270930
H 17.134580 4.805229 15.112253
O -1.653379 4.197912 7.937927
H -1.161683 3.446436 8.269216
H -2.435991 4.233976 8.487881
O 17.280181 11.710091 20.580468
H 17.669812 10.838546 20.510973
H 17.108700 11.969194 19.675099
O 9.570621 2.595178 10.975138
H 10.108511 2.036234 11.535931
H 9.610147 2.179852 10.113643
O 5.083072 7.595651 10.340764
H 5.548000 6.759028 10.352416
H 4.332775 7.461336 10.919767
O 0.525849 16.625104 13.715095
H 0.906852 15.960270 13.141454
H 1.153628 17.347417 13.695367
O 11.122583 5.774905 18.713107
H 11.291854 5.879347 17.776800
H 10.779556 6.624167 18.991168
O 1.932929 0.708673 -5.450304
H 2.537097 0.684879 -6.192359
H 1.230521 1.295039 -5.731427
O -1.332505 -2.226754 4.429928
H -1.029975 -1.340235 4.232970
H -1.405213 -2.249074 5.384102
O -5.157825 9.244457 -0.569725
H -5.398747 10.111846 -0.895032
H -4.202265 9.225294 -0.622359
O 12.925980 12.926175 7.198855
H 13.487318 13.330287 7.860539
H 12.845240 12.013940 7.477314
O 23.325910 8.623278 1.909339
H 23.895625 8.855765 1.176123
H 23.010308 7.744480 1.698765
O 1.733016 -5.375543 -2.122781
H 1.401459 -5.530926 -3.007178
H 2.674276 -5.245835 -2.238701
O 3.162730 14.943941 19.809912
H 4.105805 14.796544 19.738393
H 2.827392 14.784994 18.927576
O 7.263697 13.777215 9.772040
H 7.315391 13.557103 10.702153
H 6.342216 13.650266 9.546235
O 6.017622 15.013470 4.656639
H 5.816255 14.239347 5.182392
H 6.912915 15.245105 4.903676
O 3.403627 -8.351894 4.873500
H 4.134138 -7.985088 5.371534
H 3.140229 -9.127031 5.369500
O 14.527481 17.162722 9.038772
H 14.276545 17.503996 9.897140
H 13.856783 16.511173 8.834127
O 6.111272 11.889493 14.750445
H 6.876835 12.463476 14.724221
H 5.994361 11.687626 15.678784
O -0.053839 5.846377 6.651370
H -0.530201 5.195845 7.167238
H -0.176412 5.569241 5.743404
O 7.838993 12.412096 3.908390
H 8.750395 12.704619 3.905581
H 7.680612 12.128912 4.808920
O 18.798929 0.802129 7.626823
H 19.151547 1.600075 7.232900
H 18.670418 0.206576 6.888559
O 12.293849 18.095858 17.641479
H 12.482492 18.390343 16.750455
H 13.072143 18.337061 18.143785
O 9.492981 4.099642 13.179614
H 9.395114 3.632577 12.349853
H 10.274176 4.639762 13.060292
O 3.048589 12.037816 10.601927
H 3.595313 11.725355 11.322824
H 3.586520 12.694798 10.160070
O 15.405700 2.580666 20.130206
H 15.169702 3.336209 19.591976
H 16.336118 2.441463 19.953635
O 4.676119 19.297623 9.684897
H 3.864715 18.937953 9.326437
H 5.370756 18.857324 9.195154
O 4.749253 0.578329 15.663667
H 5.621690 0.530915 16.054610
H 4.416423 1.437508 15.923025
O 15.661385 6.954191 13.690879
H 15.765057 7.071046 14.635246
H 15.224766 7.753580 13.396647
O 8.873147 15.979823 8.992973
H 9.544565 15.640416 8.401168
H 8.367312 15.208740 9.249475
O 9.009542 0.476482 20.122412
H 9.728680 0.427419 20.752227
H 9.440258 0.504364 19.268048
O 11.851070 16.396240 12.324987
H 12.270299 15.726807 11.784303
H 11.416671 15.904469 13.021903
O 11.289017 18.694175 20.927941
H 11.647216 19.569927 21.072803
H 11.955666 18.101706 21.275491
O 4.352958 18.277483 1.268463
H 4.890967 18.623279 1.980646
H 3.555536 18.806463 1.291471
O 4.991591 18.454305 12.363490
H 4.871023 18.719563 11.451715
H 5.051447 17.499574 12.329763
O 3.875103 9.303574 -6.883355
H 3.612862 9.373714 -5.965454
H 4.614815 9.905114 -6.968250
O -3.917102 6.660612 0.882673
H -4.758690 6.253224 0.677739
H -4.139542 7.556357 1.136428
O -1.813250 1.521981 6.152006
H -1.852719 0.984421 5.360992
H -0.916844 1.857195 6.169879
O 10.917883 4.858903 9.942770
H 10.543559 4.058110 10.309980
H 11.355533 5.280357 10.682412
O 2.957547 2.625652 4.489344
H 3.788534 2.798715 4.931772
H 2.882353 1.671422 4.484624
O 8.881821 11.564874 -2.453305
H 9.508840 11.860284 -3.113466
H 8.046293 11.521506 -2.918325
O 5.721677 -4.835014 5.172410
H 5.892358 -4.721438 4.237423
H 6.471792 -4.426674 5.604634
O 12.596985 14.393298 -4.396473
H 13.238742 14.146917 -5.062564
H 12.028261 13.627558 -4.316308
O 6.412270 10.651778 17.386005
H 6.940168 11.251800 17.912815
H 7.015214 9.947503 17.147915
O 10.799669 0.744459 18.140257
H 10.723151 -0.080476 17.660821
H 11.603459 1.142572 17.806100
O 10.609324 2.655062 15.101678
H 10.386305 3.173042 14.328251
H 10.773900 1.775385 14.762095
O 5.015182 0.710205 13.116229
H 4.830932 0.697403 14.055441
H 4.164674 0.562133 12.702778
O 9.206277 -2.560025 8.207417
H 8.800138 -2.948202 7.432432
H 8.475350 -2.186391 8.699733
O 1.629612 -3.035478 1.601355
H 2.402867 -3.598696 1.568278
H 1.011909 -3.508425 2.159025
O 5.363143 7.327936 13.539148
H 5.965793 6.588334 13.616837
H 5.599011 7.906864 14.264021
O 8.459067 13.332280 -0.221823
H 8.518926 12.892184 -1.069741
H 9.113417 12.894424 0.322549
O 2.945601 -8.044681 12.204962
H 2.276383 -7.761575 12.828043
H 3.746230 -8.109346 12.725580
O 14.719349 10.690829 -11.864878
H 14.624164 9.917881 -11.308350
H 14.139739 11.342922 -11.471101
O 2.401551 0.345937 12.133861
H 2.176743 0.650475 11.254686
H 2.036561 -0.537611 12.182424
O -4.386938 -2.614138 4.374233
H -3.581899 -2.177709 4.652933
H -4.476221 -3.357024 4.971210
O -3.343013 9.057756 2.118974
H -3.286439 10.007051 2.227928
H -2.814160 8.873344 1.342741
O 7.417297 -0.023652 1.623291
H 7.805984 -0.597939 0.963482
H 7.564424 -0.477483 2.453124
O 2.245536 4.586034 6.781975
H 1.420629 5.071320 6.798032
H 2.031035 3.762561 6.343667
O 8.920838 3.210743 2.025367
H 8.189033 2.594671 1.991492
H 9.536957 2.887911 1.367789
O -3.092531 12.223732 -0.151723
H -2.200035 12.559398 -0.235461
H -3.089928 11.407658 -0.651971
O 11.555047 9.661456 10.292721
H 10.763889 9.208740 10.584868
H 11.627734 9.442375 9.363769
O 13.351118 23.184447 12.026451
H 14.076421 23.649917 11.609910
H 12.666201 23.160194 11.358220
O 0.305121 -5.587505 10.560926
H 0.668774 -6.325902 10.072298
H 0.136998 -4.919433 9.896361
O 6.143103 4.864865 14.536788
H 6.079174 4.272329 13.787758
H 5.641935 4.432518 15.228264
O 2.296884 4.074267 -1.754290
H 3.215618 3.813141 -1.817310
H 2.253303 4.911935 -2.215425
O 9.518166 9.972612 6.455040
H 9.244251 9.242658 7.010349
H 8.773099 10.573472 6.463682
O 11.683314 5.865006 13.147110
H 12.446729 6.338313 12.816337
H 11.744234 5.946555 14.098882
O -0.630479 5.138971 3.991646
H -1.556750 5.380269 3.997069
H -0.189313 5.889424 3.593620
O -1.042294 5.171878 14.966554
H -0.575110 5.633102 14.269959
H -0.920082 5.720365 15.741446
O 1.193135 11.685539 8.501373
H 1.824881 11.572115 9.211489
H 1.726071 11.702250 7.706432
O 7.089737 3.524796 -6.786391
H 7.670234 4.067660 -6.252956
H 7.347637 2.625767 -6.582758
O 17.120166 7.152904 -5.471750
H 17.218232 6.744992 -4.611387
H 17.839251 6.793300 -5.991205
O 7.806086 3.581489 5.548650
H 7.822563 3.455920 6.497434
H 7.542597 4.494276 5.431915
O 19.467205 10.805445 -2.570349
H 20.013585 10.742285 -1.786951
H 19.970829 10.358764 -3.250842
O 17.494332 -0.383581 17.162575
H 17.020336 -1.212529 17.096209
H 18.162324 -0.433683 16.478829
O 3.680433 10.305822 2.182189
H 3.867482 9.435196 1.831113
H 4.540955 10.672944 2.384565
O -5.487188 7.981569 4.451598
H -6.012685 8.277040 3.708105
H -5.425420 8.748110 5.021539
O 5.446126 5.467979 3.014253
H 4.773585 5.753102 3.632819
H 6.273650 5.637555 3.464452
O 0.215175 7.827149 4.652906
H 0.242093 7.360891 5.488436
H 0.954278 8.434078 4.692851
Na 10.116679 3.384718 19.017958
