333
Lattice="14.729727 0.0 0.0 0.0 14.729727 0.0 0.0 0.0 14.729727" Properties=species:S:1:pos:R:3 pbc="T T T" ion=oh T=300.0 t_ps=20.0
O 7.649096 12.738450 5.238873
H 7.248636 12.961647 4.395419
O 4.167883 8.642029 4.471811
H 4.748921 8.022742 4.913524
H 4.745391 9.145613 3.898121
O 7.244736 5.248396 10.455135
H 6.840907 4.390714 10.587558
H 6.963910 5.513213 9.579212
O 10.370512 5.557826 10.553454
H 9.420566 5.567058 10.436196
H 10.539889 6.248032 11.194671
O -5.025608 11.263827 1.285956
H -5.720183 11.871046 1.030842
H -5.019129 10.602290 0.594177
O 6.560869 8.655324 2.595600
H 6.974589 9.387066 3.053444
H 6.178411 9.048469 1.811129
O 8.164200 8.662571 9.759050
H 9.059867 8.534161 9.446763
H 7.643939 8.031231 9.262089
O 11.592943 0.943982 13.071688
H 12.286971 0.406367 12.690207
H 12.000624 1.357680 13.832531
O 10.162889 6.805187 15.450342
H 10.018413 7.536266 14.849607
H 9.284239 6.543295 15.725332
O 27.394268 11.828947 -4.642346
H 26.861431 12.466781 -5.117198
H 28.075541 11.574558 -5.264749
O 17.690871 5.976043 1.844817
H 18.538386 5.985920 2.289623
H 17.049713 5.901770 2.551664
O 6.420607 10.855258 6.725619
H 5.512410 10.991176 6.455551
H 6.890783 11.612191 6.376019
O 13.485289 13.774862 12.158908
H 13.161329 13.230215 11.441522
H 14.305708 14.142085 11.829833
O 14.234978 12.552272 14.616840
H 13.596671 12.845420 13.966564
H 14.588362 11.738917 14.256554
O 13.357650 1.537013 15.043535
H 13.019303 2.294688 15.520696
H 14.261603 1.447439 15.345326
O 16.611235 8.441571 -2.865153
H 16.926695 8.848512 -3.672071
H 17.034980 7.583456 -2.847570
O 8.624831 6.692587 4.142924
H 8.857163 7.536789 3.756172
H 7.753873 6.830719 4.515191
O 12.289234 9.908765 -2.278427
H 12.810927 9.635417 -3.032979
H 12.795850 9.620338 -1.519229
O 4.944041 -0.064168 10.171544
H 5.846058 0.155483 9.938411
H 5.004979 -0.418797 11.058538
O 0.050736 11.069337 8.422110
H -0.124023 10.502440 7.670898
H 1.003258 11.056787 8.515783
O 8.732568 15.079020 13.672654
H 8.811965 14.317602 13.098049
H 9.634741 15.300961 13.902996
O -4.167717 10.016811 6.730936
H -4.726144 10.742236 7.010488
H -3.939222 9.563351 7.542352
O 5.042487 1.583667 19.007124
H 4.279854 1.730082 19.566754
H 5.624142 1.034640 19.532936
O 7.693304 15.580766 9.680316
H 7.467198 16.310623 10.256873
H 7.906313 15.993271 8.843239
O 7.459355 5.441717 0.813054
H 7.232062 5.687423 -0.083717
H 6.827670 5.911101 1.357925
O 16.785772 13.544898 -0.139607
H 17.287591 12.757981 -0.352142
H 15.882879 13.238360 -0.055637
O 16.075642 8.620773 1.866107
H 16.365794 7.711407 1.794711
H 15.350133 8.592921 2.489880
O -3.660205 15.040174 16.824442
H -3.046995 14.691013 16.177687
H -3.782830 14.325439 17.449221
O 6.888216 4.272656 6.979990
H 6.105653 4.173673 7.522233
H 7.467804 3.565701 7.263759
O 4.976676 13.163626 5.276886
H 5.915334 12.998064 5.188890
H 4.633673 13.079296 4.387240
O 7.153638 11.138597 9.524318
H 6.489457 10.845110 8.900650
H 7.671347 10.355180 9.709971
O 17.760686 10.677692 15.699890
H 17.858265 11.419311 16.297143
H 17.374503 9.986036 16.237203
O 18.846377 5.868116 13.843214
H 18.326618 6.210339 14.570514
H 18.358033 5.103455 13.538179
O -2.803048 6.156010 8.344255
H -3.270839 6.800433 7.813103
H -3.321657 6.083503 9.145516
O 17.296989 10.287155 20.535932
H 17.772341 9.746860 19.904779
H 16.393890 9.973520 20.488210
O 10.443959 0.890722 10.523693
H 10.811386 0.859877 11.407026
H 9.499832 0.800840 10.653214
O 6.322594 7.034857 8.228562
H 5.674061 6.341506 8.106491
H 6.027278 7.505130 9.008218
O 1.038136 16.409577 16.347009
H 1.722534 16.953087 15.956588
H 1.510926 15.682381 16.751839
O 12.431829 3.697536 16.603785
H 12.265844 4.418025 15.995856
H 13.047413 4.058713 17.241625
O 1.164074 0.090772 -3.542868
H 1.623546 -0.663583 -3.911738
H 1.763900 0.437741 -2.882525
O -0.043319 2.680353 3.845661
H 0.719913 2.323272 4.299756
H 0.181012 2.622120 2.916943
O -2.661850 10.218653 2.056601
H -3.467731 10.731196 1.992673
H -2.851788 9.554463 2.719178
O 11.314194 9.246190 9.212835
H 11.766203 8.475786 9.556923
H 11.814138 9.988917 9.551425
O 25.295333 8.889276 4.001058
H 24.677741 9.593251 3.802989
H 25.151553 8.697567 4.927777
O -1.363978 -5.682426 0.011172
H -1.906878 -5.315696 0.709026
H -0.592533 -5.116385 -0.015313
O 3.812341 12.791950 17.577207
H 3.863831 13.303825 16.770011
H 3.164524 13.251183 18.111687
O 2.993071 16.515569 9.803224
H 2.240749 15.991506 9.528267
H 3.602574 15.881096 10.180294
O 7.047876 15.186781 6.199247
H 6.788564 15.078800 7.114304
H 7.291946 14.306439 5.913488
O 4.205895 -9.649024 7.916187
H 3.720071 -9.432580 8.712026
H 3.529365 -9.814850 7.259650
O 15.763414 15.616445 7.763906
H 14.974868 16.136448 7.918903
H 15.460811 14.708653 7.787928
O 5.111918 13.486926 12.960034
H 5.393835 13.590860 13.868853
H 5.410781 12.611297 12.714702
O -0.827296 4.775392 7.000206
H -1.598870 5.256957 7.298537
H -0.925201 3.903886 7.383773
O 10.014995 13.314184 4.137810
H 10.665765 12.688402 4.455813
H 9.189292 13.016756 4.519887
O 16.915841 4.418166 6.322426
H 16.051480 4.540224 6.715126
H 16.988723 3.472735 6.191738
O 8.917935 15.804689 18.992588
H 8.415583 15.863533 19.805245
H 9.286972 14.921539 19.001988
O 13.362978 5.970891 12.513833
H 13.021413 5.102127 12.302137
H 13.322171 6.018607 13.468972
O 6.257644 11.206227 12.084944
H 6.551068 11.053138 11.186781
H 6.328288 10.351251 12.509513
O 15.999763 5.326478 18.552967
H 15.217777 4.786967 18.669831
H 16.572544 5.079311 19.278957
O 3.156546 18.471513 12.025058
H 3.218131 17.968957 11.212730
H 3.062547 17.809681 12.710168
O 4.809950 -0.076755 15.728323
H 5.369478 0.126045 16.478011
H 5.074585 0.549887 15.054883
O 11.146375 7.500805 12.530962
H 11.442898 8.405329 12.430256
H 11.951309 6.982817 12.529615
O 9.064732 17.090496 7.770990
H 9.823024 17.549035 8.132885
H 9.437678 16.348672 7.294712
O 12.930013 -0.459667 20.575312
H 12.410799 -0.355833 21.372726
H 12.676987 -1.317478 20.234184
O 9.613824 10.139161 12.149610
H 9.500991 9.611439 11.359034
H 10.561728 10.184169 12.274848
O 12.278400 16.662373 19.565280
H 13.101475 17.127102 19.414264
H 12.545037 15.784200 19.837214
O 2.899720 18.190574 0.518066
H 3.836379 18.057263 0.663428
H 2.695123 18.995363 0.994181
O 6.198339 16.564565 13.826526
H 6.172844 17.108940 14.613444
H 7.080935 16.194154 13.819446
O 2.779550 9.613994 -5.220588
H 3.603796 9.157203 -5.388496
H 3.043475 10.461106 -4.861455
O -1.926511 6.539560 0.806186
H -2.855509 6.733714 0.930674
H -1.548932 7.362377 0.495319
O 0.601190 -1.499338 6.612693
H 0.354691 -2.358120 6.956153
H -0.196562 -1.167683 6.200591
O 11.371190 3.287412 9.473645
H 11.302768 4.100918 9.973402
H 10.841113 2.659154 9.964097
O 5.881264 4.256238 4.516145
H 6.306054 4.399699 5.361842
H 5.668288 3.323053 4.509796
O 5.674764 9.950604 0.488249
H 4.737459 10.132562 0.555936
H 6.083051 10.814175 0.426784
O 7.973268 -4.151122 3.770523
H 8.309924 -3.844894 2.928431
H 8.100896 -3.410708 4.363591
O 9.063863 9.193496 -0.217415
H 9.070522 9.445479 -1.140829
H 8.146523 8.995069 -0.029410
O 7.362596 12.531170 15.035755
H 7.200699 13.080305 15.802875
H 7.817360 13.106400 14.420506
O 7.503855 0.220869 16.664117
H 8.034084 0.805710 16.122776
H 7.617735 0.550086 17.555677
O 10.519490 4.267036 14.033912
H 10.329956 5.189949 14.202848
H 11.194136 4.280950 13.355022
O 2.872250 1.252963 13.248622
H 2.872219 0.343964 13.548543
H 2.908235 1.770986 14.052730
O 11.438424 -1.106631 8.403536
H 10.674307 -1.593606 8.094971
H 11.092350 -0.515575 9.072204
O 1.714168 -0.790408 4.216123
H 1.546129 -1.113504 5.101337
H 0.871083 -0.865575 3.769144
O 5.169490 8.203459 10.326335
H 5.699406 8.426209 11.091713
H 4.656543 7.443915 10.602396
O 6.356606 8.781728 -1.822293
H 5.943543 9.134817 -1.034296
H 6.584909 7.881455 -1.590738
O -0.773675 -5.793001 10.532113
H 0.039833 -6.069871 10.953751
H -0.555827 -5.740407 9.601517
O 14.529765 9.626195 -8.779956
H 14.368228 10.047812 -9.623980
H 15.072218 8.866350 -8.991174
O -0.148919 2.449652 10.917849
H 0.343240 3.237079 10.685537
H 0.477942 1.734339 10.810127
O -2.640704 -2.909997 5.149506
H -1.999163 -3.216948 4.508853
H -3.013282 -3.710728 5.518625
O -0.497061 11.125640 3.478474
H -0.645257 12.005430 3.131717
H -0.943227 10.546031 2.861044
O 8.655164 -2.052995 -2.176852
H 7.796533 -2.394137 -2.427066
H 9.259362 -2.775691 -2.346812
O 1.449313 7.304003 8.483069
H 1.706746 6.897863 7.655415
H 1.974463 8.102788 8.531987
O 8.940486 2.785565 1.182736
H 9.392830 3.223585 0.461796
H 8.229146 3.381604 1.417182
O -0.697930 13.749553 2.725966
H -0.839448 14.693787 2.657946
H -0.764928 13.431375 1.825685
O 6.672618 7.879182 5.692878
H 6.659094 7.529369 6.583766
H 6.622405 8.828237 5.806919
O 9.383667 20.659482 6.530078
H 9.053716 21.027002 5.710143
H 8.660681 20.127680 6.862808
O 2.797893 -2.104823 10.058145
H 3.497118 -1.535221 10.378878
H 3.006380 -2.243864 9.134331
O 6.736488 6.123924 13.015229
H 6.879711 5.914731 12.092213
H 5.847896 5.817238 13.195730
O 3.225430 6.171716 -3.952422
H 2.407646 5.937593 -4.391338
H 3.306528 5.536258 -3.241192
O 8.972861 12.245241 7.368218
H 8.335481 11.776668 7.907121
H 8.554350 12.318267 6.510460
O 15.303410 5.421562 10.497255
H 14.982035 5.831834 11.300142
H 15.249119 6.112056 9.836572
O -1.035848 7.491556 2.994531
H -1.185181 6.817129 3.657161
H -1.326178 7.091228 2.174972
O -1.088260 2.360049 8.442979
H -2.038884 2.471482 8.454340
H -0.841829 2.306715 9.366375
O 3.495082 12.222686 7.285357
H 4.141766 12.680618 6.748393
H 3.062340 11.621398 6.679207
O 5.951377 2.678379 -3.665076
H 5.191477 2.236553 -4.043987
H 5.953941 2.406747 -2.747230
O 12.223272 3.445498 -2.570212
H 11.640463 2.713609 -2.367967
H 12.895242 3.067511 -3.137498
O 10.388896 4.344160 4.140597
H 10.388529 4.539686 5.077615
H 9.936053 5.086444 3.740373
O 15.750673 10.498058 -0.975726
H 16.273779 10.479083 -0.174332
H 16.070835 9.756195 -1.488920
O 17.218759 1.484238 20.420974
H 17.172305 0.637469 19.977065
H 16.730681 1.355909 21.234327
O 5.561736 6.187646 2.659126
H 5.802493 5.806675 3.503595
H 5.752005 7.120945 2.753902
O -1.614875 5.020764 4.203707
H -1.498432 4.684437 5.092278
H -2.482337 4.712107 3.942034
O 5.637891 3.142767 1.337023
H 6.093271 3.984647 1.346989
H 5.596386 2.881468 2.256931
O 0.603506 7.005857 5.725860
H 0.069711 6.401560 6.241728
H 0.631915 6.615283 4.852432
Na 10.565021 2.337468 17.794759
