333
Lattice="14.854855 0.0 0.0 0.0 14.854855 0.0 0.0 0.0 14.854855" Properties=species:S:1:pos:R:3 pbc="T T T" ion=oh T=300.0 t_ps=24.0
O 7.287382 11.706945 6.683303
H 7.682409 12.577896 6.766954
O 2.490779 7.831776 5.446571
H 3.037640 7.211236 5.928343
H 2.692347 7.664779 4.525857
O 6.340750 7.399117 7.366295
H 6.080710 7.474421 8.284413
H 6.070273 8.228096 6.971492
O 8.373605 5.932949 11.213260
H 8.766582 5.909518 10.340763
H 8.128373 5.024826 11.390479
O -3.541836 13.783619 1.626464
H -3.423996 13.368124 2.480694
H -2.681179 13.727151 1.211357
O 6.827754 8.584382 3.776923
H 6.579863 9.126204 4.526064
H 7.784393 8.563345 3.802052
O 12.052006 8.913908 10.484956
H 12.496571 9.504186 9.876544
H 11.539897 8.331813 9.923581
O 12.912766 -0.271988 10.530626
H 13.657613 -0.861732 10.647401
H 12.400607 -0.370396 11.333272
O 10.695283 7.544864 15.315752
H 10.695599 7.512674 14.359093
H 9.778294 7.419156 15.559802
O 26.777964 13.245531 -6.626460
H 27.332283 13.748806 -6.030075
H 26.083200 12.894329 -6.069510
O 17.065650 3.088793 1.246009
H 17.023256 3.279091 2.183144
H 16.202964 2.732181 1.034272
O 5.958914 10.873298 8.821865
H 5.749879 11.655261 9.332814
H 6.402899 11.207477 8.042485
O 15.208830 12.871125 10.444792
H 15.308358 12.507743 9.564860
H 15.864025 13.567315 10.492457
O 15.952924 13.012539 13.181046
H 15.579879 12.962620 12.300945
H 16.433358 12.191194 13.285004
O 13.752996 2.536037 18.781946
H 13.866016 2.624353 19.728339
H 13.870213 3.423289 18.442423
O 19.032897 10.950508 -2.702633
H 18.716484 10.122918 -3.064862
H 19.924187 10.759455 -2.410516
O 8.577123 6.205183 6.262388
H 7.907053 6.774175 6.641183
H 9.057083 5.864233 7.017122
O 13.354292 11.288297 -1.514292
H 13.471630 11.112981 -2.447956
H 13.770862 10.545968 -1.076514
O 6.441385 0.117206 11.461157
H 6.033629 0.912707 11.803421
H 6.821251 -0.307718 12.230165
O -1.604332 11.590972 5.388297
H -1.709908 10.744695 5.822924
H -1.387917 11.370171 4.482403
O 10.768582 16.088159 14.314636
H 10.272752 15.440952 14.816141
H 11.595924 16.176014 14.787941
O -3.589763 9.106389 6.628973
H -4.380405 9.637532 6.723858
H -2.984256 9.458709 7.281249
O 5.836944 0.037238 22.701266
H 5.050775 0.538240 22.918443
H 5.506270 -0.764929 22.297019
O 8.469898 18.989643 8.262109
H 8.096408 19.089709 9.137737
H 7.892196 18.364115 7.824837
O 8.079139 7.234406 1.043960
H 7.391948 6.926935 0.452807
H 7.617548 7.765466 1.692914
O 16.926619 14.002698 0.710046
H 17.646324 13.405758 0.914788
H 16.576639 13.680652 -0.120635
O 14.729531 6.708234 0.770577
H 15.602204 6.407053 0.517666
H 14.877273 7.245439 1.548918
O -1.421372 15.971594 15.364990
H -0.863955 15.196159 15.429949
H -0.885654 16.613943 14.899559
O 4.336164 4.659038 4.609920
H 4.272749 5.212028 5.388645
H 4.892982 5.153915 4.008852
O 4.922758 12.795009 6.077892
H 5.730857 12.345930 6.325955
H 4.276971 12.094329 5.987124
O 10.116781 10.473394 11.615930
H 9.860722 10.787094 10.748602
H 10.892262 9.935193 11.457182
O 18.869099 8.621644 14.516032
H 18.421853 9.262106 13.962849
H 19.357334 8.073390 13.901804
O 17.196381 5.722584 15.122874
H 17.193249 4.795272 15.360181
H 17.702231 5.760873 14.311158
O -2.487366 5.260264 8.936321
H -2.599634 4.325253 8.764906
H -3.377872 5.611188 8.945497
O 18.325207 10.349901 19.705188
H 17.787138 9.570167 19.568334
H 18.323156 10.794686 18.857606
O 10.106671 0.817661 10.019067
H 10.356831 0.267212 10.761130
H 9.212356 0.547521 9.810604
O 5.601569 7.134237 9.887851
H 5.824414 6.224411 10.084799
H 5.203555 7.463661 10.693640
O 0.137373 17.978407 14.342438
H 0.563504 18.009499 13.485888
H -0.433620 18.746557 14.354441
O 10.694199 4.949456 18.345339
H 11.258330 5.107888 17.588445
H 10.662669 5.790450 18.801372
O 2.306452 0.050313 -4.234195
H 3.135034 -0.426596 -4.281544
H 2.052226 0.180994 -5.147718
O -0.096647 -0.153591 3.650252
H 0.835839 -0.109340 3.438728
H -0.391560 0.756737 3.626597
O -4.194017 10.296379 1.250950
H -4.118554 10.854474 0.476956
H -4.048472 9.409244 0.922256
O 13.054139 10.600559 8.476153
H 13.999813 10.685520 8.354851
H 12.714334 11.485036 8.340272
O 24.255302 9.285465 3.471718
H 24.141664 10.037288 4.053164
H 24.708818 9.639942 2.706929
O -0.145313 -5.618746 -0.577113
H 0.802526 -5.574501 -0.703117
H -0.299424 -6.493558 -0.220481
O 4.003532 12.835645 17.950266
H 4.750298 13.141103 18.465307
H 4.380445 12.583502 17.107299
O 8.043340 14.024802 9.308469
H 7.388097 14.301039 9.949235
H 7.627074 14.174732 8.459661
O 6.872586 14.222222 4.020800
H 6.382460 14.364411 4.830609
H 7.247965 13.347078 4.117987
O 4.036716 -8.854248 6.919036
H 4.878000 -8.530240 7.240739
H 3.515140 -8.993740 7.709436
O 15.807301 15.564313 8.262708
H 15.091926 16.164560 8.472884
H 15.514210 15.108604 7.473620
O 4.430792 11.934224 15.301804
H 4.897896 12.753175 15.136377
H 5.032582 11.250866 15.006673
O -0.134309 5.762965 7.893793
H -0.994708 5.693020 8.307380
H -0.106250 5.034455 7.273537
O 8.606195 12.001439 4.574545
H 9.114314 12.806079 4.677512
H 8.058227 11.961682 5.358371
O 18.469009 2.039498 7.567650
H 17.552174 1.773112 7.636091
H 18.516597 2.526718 6.745102
O 11.070029 16.555345 17.429641
H 11.227970 15.656656 17.140425
H 11.944106 16.919518 17.569639
O 11.599422 4.038074 11.439415
H 11.586131 3.457153 10.678767
H 12.518473 4.288216 11.534318
O 4.415140 13.472216 10.635922
H 4.213939 12.773389 11.258330
H 5.018971 14.046526 11.106865
O 15.212146 3.863470 20.831198
H 14.682467 4.418248 20.258579
H 15.831121 3.432239 20.242011
O 3.308223 18.465146 10.018668
H 2.986905 19.311443 9.707593
H 3.397919 17.936347 9.225852
O 5.871146 -0.531343 15.476140
H 6.771496 -0.487475 15.798128
H 5.606316 0.383309 15.378621
O 10.612323 7.358391 12.683508
H 10.121730 6.816764 12.065293
H 11.403793 7.609272 12.207204
O 6.982238 17.220896 6.539796
H 7.667825 16.924499 5.941172
H 6.577343 16.414465 6.859110
O 9.982686 -0.631855 20.667316
H 10.181190 -1.050910 21.504705
H 10.692518 -0.906947 20.087062
O 11.030128 14.190796 12.485947
H 11.042404 13.449256 13.091092
H 11.076589 14.962232 13.050711
O 9.533031 16.849339 20.260925
H 9.951857 17.061059 21.095186
H 9.862539 15.977890 20.041306
O 4.681735 16.924220 0.625916
H 5.217681 17.608712 1.026497
H 3.785275 17.253863 0.688578
O 7.077851 18.599965 12.708722
H 6.509839 17.946059 13.116155
H 7.960092 18.363078 12.994672
O 2.731105 8.358876 -4.390533
H 1.799423 8.468362 -4.200234
H 2.843865 8.736470 -5.262852
O -2.548932 5.451427 1.147569
H -3.127068 6.142737 0.824953
H -1.734595 5.903328 1.368642
O -0.089923 -1.031810 6.407659
H -0.371610 -1.924690 6.208535
H -0.199922 -0.556210 5.584290
O 11.038718 2.723968 8.107293
H 10.153553 3.059840 8.248375
H 11.057132 1.890783 8.578138
O 2.412822 2.894697 4.104346
H 3.136744 3.508578 4.228117
H 2.833778 2.078502 3.834430
O 6.499370 10.490052 -1.148188
H 6.478576 9.533969 -1.189488
H 6.832448 10.685239 -0.272292
O 5.819748 -5.062418 5.953589
H 5.032068 -4.663374 5.584053
H 6.392726 -4.322121 6.153309
O 10.806136 11.842441 -1.118165
H 11.751287 11.698036 -1.163655
H 10.453313 11.359324 -1.865390
O 7.301435 10.549075 16.506774
H 7.033363 10.047315 17.276583
H 7.913908 11.201365 16.846812
O 8.017222 1.629718 17.448865
H 8.645684 1.226406 16.850027
H 7.612653 0.891755 17.904897
O 9.802978 3.888390 13.540023
H 10.526006 4.151991 12.970833
H 10.090049 3.060253 13.924743
O 4.892944 1.818628 12.701770
H 4.788778 1.712883 13.647392
H 4.017212 1.668708 12.345612
O 9.974709 -3.060716 9.245170
H 9.682947 -3.861818 8.810036
H 9.182000 -2.530794 9.328999
O 1.894116 -4.723497 2.218005
H 2.534549 -5.323380 1.835621
H 1.245756 -5.294993 2.629411
O 6.088152 7.687904 12.746846
H 6.891467 7.529458 12.251052
H 6.099800 7.027863 13.439984
O 8.042295 13.026487 -1.906470
H 7.643460 12.156336 -1.906532
H 8.787041 12.949170 -2.502798
O 0.293188 -5.915453 11.319589
H -0.401165 -6.566398 11.421451
H 0.378703 -5.518159 12.186236
O 14.439236 8.451427 -11.851638
H 13.847392 9.163522 -12.094274
H 14.032381 8.052809 -11.082349
O 1.598255 2.653386 11.976318
H 2.122296 3.028364 11.268501
H 1.508988 1.728860 11.744985
O -2.837894 -1.327409 4.220565
H -2.021376 -0.948330 3.895251
H -2.559314 -2.001430 4.840501
O -1.942958 11.044162 2.538391
H -1.647646 11.731671 1.941437
H -2.778405 10.752208 2.173667
O 8.959060 -0.470038 0.453258
H 8.628088 -1.048577 -0.233751
H 9.700205 -0.944368 0.830016
O 2.541185 5.989711 9.127933
H 2.660914 6.881876 9.453415
H 1.671257 5.994645 8.728642
O 8.549144 4.487551 1.364520
H 8.955840 4.519803 0.498615
H 8.434800 5.405566 1.610297
O -0.762749 13.269711 0.959508
H 0.051503 13.109364 1.436493
H -0.528927 13.151166 0.038907
O 7.896955 8.832909 9.801651
H 7.255529 8.139578 9.956880
H 7.379590 9.637945 9.779676
O 10.234474 22.361355 9.166582
H 10.340410 22.648913 8.259764
H 9.422136 22.776357 9.456603
O 1.016240 -3.324329 7.864690
H 1.086581 -2.601337 7.241338
H 1.850732 -3.787294 7.790406
O 6.382089 5.507143 14.535190
H 6.643701 4.900070 13.842909
H 6.632118 5.066915 15.347543
O 3.372114 5.471875 -2.242388
H 2.818420 6.171573 -2.588910
H 3.569807 4.923870 -3.001887
O 8.932799 9.951260 7.432851
H 8.391413 9.484957 8.069792
H 8.349832 10.613405 7.061442
O 13.677739 6.791782 12.414102
H 13.095639 6.902882 13.165799
H 13.631070 5.857667 12.210428
O -1.161116 5.397293 4.461696
H -2.112953 5.391241 4.562693
H -0.892364 6.262051 4.771855
O -1.165762 2.038045 9.268103
H -1.884548 2.139307 8.644144
H -1.474052 1.372805 9.883443
O 3.501779 9.980328 8.018328
H 4.344608 10.175799 8.427792
H 3.727698 9.661251 7.144610
O 5.909181 4.190696 -4.668237
H 5.026813 3.822039 -4.710096
H 6.256811 3.886577 -3.829848
O 14.462357 4.358216 -3.524908
H 14.426521 4.001008 -4.412235
H 15.104842 3.811970 -3.072071
O 7.577604 4.418984 4.566206
H 7.196261 3.828934 5.216321
H 8.139721 5.004293 5.073818
O 17.138490 10.654371 -0.872337
H 17.500908 10.847012 -0.007598
H 17.892825 10.684384 -1.460817
O 17.545480 0.292080 17.882868
H 17.107629 0.318878 17.032104
H 17.890689 -0.598386 17.947166
O 3.329135 7.392333 2.673092
H 4.278270 7.281913 2.616672
H 2.984375 6.884589 1.938539
O -3.385585 7.576876 4.233918
H -4.061502 8.085365 3.785803
H -3.412143 7.887398 5.138961
O 6.067192 6.210604 3.036039
H 6.592354 5.533291 3.462282
H 6.392641 7.032773 3.402580
O -0.155995 7.427924 5.790821
H -0.189859 7.051635 6.670304
H 0.765818 7.650290 5.660261
Na 9.244947 3.270545 18.191961
