333
Lattice="14.935130 0.0 0.0 0.0 14.935130 0.0 0.0 0.0 14.935130" Properties=species:S:1:pos:R:3 pbc="T T T" ion=oh T=300.0 t_ps=36.0
O 7.108084 10.524357 6.588248
H 7.477325 11.393398 6.761543
O 2.123246 7.892533 6.622697
H 2.480442 8.463479 7.302892
H 1.652043 8.484045 6.035916
O 6.625812 7.213974 10.115266
H 6.840808 7.611776 9.271606
H 6.854483 7.882491 10.761043
O 4.195841 5.759498 14.826525
H 4.366921 5.176126 14.087174
H 3.474602 6.315466 14.531658
O -4.363315 13.223913 1.291186
H -3.664712 13.528792 1.870180
H -3.956176 13.180653 0.425970
O 7.968555 5.018047 9.242000
H 7.515125 5.717915 9.711912
H 7.926084 4.265855 9.832454
O 14.608894 11.363095 13.334564
H 14.277915 12.031219 12.734318
H 14.630984 10.561139 12.812442
O 12.371352 4.578523 12.563643
H 13.293352 4.705346 12.787395
H 12.385001 3.967077 11.827315
O 4.581240 4.295512 12.201492
H 4.539319 4.766105 11.369016
H 4.675266 3.375956 11.952880
O 28.374493 13.881798 -6.118521
H 27.423621 13.983318 -6.160576
H 28.717362 14.624669 -6.615326
O 14.858921 1.638436 -1.608215
H 15.609660 1.115720 -1.326452
H 15.215778 2.236429 -2.264941
O 7.139848 8.147350 7.773216
H 7.952110 7.751973 7.456769
H 7.084859 8.984393 7.312167
O 14.924618 16.082617 7.612937
H 15.400609 16.277587 6.805688
H 15.479874 16.432909 8.309512
O 17.643399 10.591627 10.680925
H 18.151797 10.613286 11.491662
H 18.221417 10.167887 10.046440
O 16.354891 4.232560 18.785782
H 17.233044 4.602194 18.877709
H 16.005133 4.639198 17.992973
O 22.576371 9.683320 -3.833487
H 22.282750 10.297583 -3.160658
H 22.029196 9.880510 -4.593716
O 10.765169 5.675909 8.427008
H 9.818023 5.566341 8.511517
H 10.988354 6.343482 9.075674
O 16.673399 9.453221 1.110251
H 16.277102 10.245555 1.472726
H 17.128393 9.052112 1.850740
O 6.619085 -0.329694 13.420963
H 6.081990 0.203313 12.834734
H 7.520609 -0.100380 13.195346
O -1.603576 7.944433 7.103684
H -0.981074 7.858299 7.825697
H -1.982014 7.070492 7.007546
O 10.977091 17.671347 14.697512
H 11.219247 17.028769 15.364359
H 11.421541 17.372879 13.904030
O -1.571691 10.552824 7.915561
H -1.680762 9.645907 7.629487
H -0.818829 10.529259 8.506217
O 6.295521 1.443147 22.040889
H 6.276023 2.361596 21.771997
H 6.952979 1.040830 21.473331
O 9.530457 19.291476 12.224297
H 9.200751 20.114583 11.863713
H 10.431739 19.486021 12.481348
O 8.571291 6.181273 1.846857
H 9.344690 6.158703 2.410396
H 8.704554 5.463647 1.227595
O 13.730870 13.227746 -3.195749
H 14.265668 13.763330 -3.781729
H 13.108523 12.787186 -3.774389
O 15.583976 6.984544 0.533111
H 15.825313 7.871464 0.800245
H 15.025733 7.108635 -0.234481
O -2.772715 16.067750 13.005456
H -2.909233 15.133752 12.846576
H -1.821397 16.169812 13.033890
O 5.323898 0.876618 3.830207
H 5.222945 1.756455 4.193425
H 6.152583 0.561606 4.191150
O 4.752932 11.895140 6.249986
H 5.587465 11.444043 6.377648
H 4.726798 12.552735 6.945053
O 12.089574 11.195526 10.549954
H 12.314674 11.219406 9.619905
H 12.635826 10.497444 10.911233
O 18.407475 5.598492 19.699169
H 19.207514 5.603431 19.173673
H 18.711015 5.714497 20.599523
O 14.853049 2.235542 16.025035
H 14.635255 1.932674 15.143520
H 15.545704 2.882690 15.892149
O -1.828467 5.218726 7.349984
H -1.895210 4.728265 6.530700
H -2.712772 5.196535 7.715693
O 18.054905 11.928954 19.090069
H 18.585100 11.953409 19.886641
H 17.397690 11.254064 19.259847
O 8.090021 -0.275720 9.925234
H 7.917027 0.494014 10.467282
H 7.238242 -0.502993 9.552337
O 3.096794 8.337661 13.705922
H 2.697864 8.663010 14.512914
H 3.580939 9.086786 13.358580
O 0.111058 17.216650 10.556964
H 0.413636 16.330243 10.754346
H 0.864850 17.775317 10.746494
O 10.517739 6.103364 18.641042
H 11.160190 6.710071 18.273081
H 10.118717 6.586230 19.364820
O 1.889166 1.680416 -9.354623
H 1.710467 2.316774 -10.046971
H 2.156452 0.887939 -9.820208
O -0.537622 -2.018712 4.871634
H -0.568902 -1.234875 4.323132
H -1.453528 -2.278073 4.972033
O -4.970131 8.313506 -0.242536
H -5.722813 8.814485 0.071663
H -4.285840 8.968732 -0.379124
O 11.686534 11.944826 6.135664
H 12.460948 11.522869 6.507774
H 11.034839 11.245799 6.081935
O 23.937297 10.673241 2.956410
H 24.489831 10.353969 3.669855
H 24.370558 11.472344 2.656491
O 4.082868 -4.149999 -1.892893
H 3.406075 -3.578528 -1.530122
H 4.885760 -3.630979 -1.845836
O 2.736895 14.681192 18.779623
H 3.591966 15.110396 18.809096
H 2.911419 13.779718 19.050027
O 5.422887 13.870830 8.365815
H 4.494006 13.909929 8.593594
H 5.645358 14.766224 8.110849
O 5.242940 11.965317 2.480104
H 5.997167 12.006244 3.068065
H 4.483851 11.964466 3.063213
O 4.313626 -9.302831 9.881686
H 5.111099 -8.773843 9.860696
H 4.144777 -9.518928 8.964613
O 12.349060 16.453256 6.990100
H 11.776374 16.978252 7.549243
H 13.222390 16.570010 7.364125
O 9.161896 15.136928 12.833016
H 9.554529 14.449911 12.294427
H 9.907780 15.632269 13.171432
O 0.933143 5.566400 7.625798
H 0.013473 5.457506 7.383760
H 1.217063 6.344491 7.146011
O 7.173436 11.937570 4.506146
H 7.712252 11.467132 3.870067
H 7.038921 11.310744 5.216938
O 21.782394 4.038997 6.389209
H 21.611187 4.705250 7.054811
H 21.632082 4.487127 5.556852
O 12.585276 18.657890 16.751347
H 13.387952 18.145427 16.654793
H 12.218057 18.697352 15.868270
O 8.308228 2.463395 10.622396
H 8.857183 2.431202 9.838914
H 8.883552 2.809825 11.304467
O 6.883987 11.884934 13.202223
H 7.329876 11.430061 13.916720
H 7.027300 12.813970 13.382737
O 14.011438 6.132374 17.939722
H 13.322133 5.538584 17.642226
H 14.507480 6.340126 17.147880
O 4.324395 16.658724 9.232994
H 3.673560 17.347489 9.097904
H 4.906522 16.726845 8.476212
O 4.081922 1.289415 16.047179
H 4.562055 0.586146 16.484348
H 4.718103 1.676578 15.445838
O 15.952793 7.400158 12.444051
H 16.645841 7.955967 12.800412
H 16.315755 7.058101 11.627052
O 10.757655 14.321587 8.669145
H 10.352247 13.993239 7.866610
H 10.135170 14.098339 9.361176
O 7.544658 -0.235897 19.823299
H 7.565707 -1.186377 19.934547
H 7.845247 -0.092593 18.925891
O 11.702032 21.043525 15.086187
H 11.298680 20.417286 14.485051
H 10.978512 21.600395 15.373669
O 13.197175 18.934542 19.918268
H 13.586106 19.525359 19.273365
H 13.920741 18.373001 20.196395
O 6.948702 19.650182 3.551195
H 7.536191 20.144186 2.979314
H 6.109139 19.651396 3.091452
O 5.749392 17.733000 14.461008
H 6.691992 17.730776 14.627541
H 5.674114 17.702129 13.507273
O 3.560501 9.980165 -6.795267
H 3.473195 10.457859 -7.620142
H 4.467935 10.126489 -6.528088
O -5.823007 7.328946 -2.773727
H -5.604389 7.686425 -1.913118
H -6.160322 8.077441 -3.265871
O -2.400138 -0.703030 2.845910
H -1.464274 -0.528961 2.745457
H -2.731570 0.045485 3.342005
O 10.291748 2.245813 8.684232
H 10.265810 1.289889 8.642189
H 10.883779 2.438074 9.411396
O 0.171149 0.219233 2.903291
H 0.143684 0.917359 2.248999
H 1.104279 0.064845 3.050481
O 10.142596 12.834689 -3.359755
H 10.750545 12.294396 -3.864447
H 9.307712 12.750666 -3.820342
O 6.220898 -6.357017 4.745699
H 5.786169 -6.031364 3.957542
H 6.353602 -5.577998 5.285839
O 12.363677 17.209369 -4.386218
H 13.295799 17.209890 -4.603887
H 12.315122 16.764901 -3.539860
O 4.599958 9.214047 17.473120
H 4.675346 10.124829 17.188470
H 4.965724 8.705381 16.749444
O 11.375879 1.301068 19.320616
H 11.721062 1.080396 20.185708
H 10.585621 0.767879 19.234392
O 8.454345 3.842619 14.731606
H 9.237518 3.329422 14.930353
H 8.613960 4.194698 13.855938
O 1.144894 -0.301192 10.915283
H 1.562861 -0.229964 11.773457
H 1.759292 -0.814879 10.391001
O 6.188173 -3.889015 9.115514
H 6.518374 -4.200193 8.272681
H 5.962069 -2.971850 8.960862
O 1.145967 -4.814645 5.086969
H 0.755676 -4.126935 5.626376
H 0.409469 -5.185251 4.600704
O 5.931759 7.760408 15.794270
H 5.531117 7.098858 15.230294
H 6.764089 7.372845 16.064924
O 8.843356 15.194607 2.260864
H 8.032399 15.049884 1.773386
H 9.484668 14.626619 1.833851
O 1.504827 -10.500231 15.818731
H 2.373234 -10.307443 16.172189
H 1.193755 -9.662343 15.476079
O 16.548224 12.300203 -15.233112
H 15.912480 11.954084 -15.859421
H 16.195655 12.060636 -14.376062
O 2.709829 -1.802193 9.100255
H 2.021750 -1.816344 8.434989
H 2.803825 -2.716429 9.367781
O 1.080239 -3.033752 2.175114
H 1.921564 -3.077445 2.629531
H 0.486999 -2.627534 2.807004
O -2.143138 10.226481 0.386589
H -2.391693 10.743549 1.152810
H -1.753940 10.861023 -0.215169
O 6.634634 -0.923360 1.174123
H 6.492840 -0.875837 0.228677
H 6.012462 -1.584646 1.477165
O 2.198747 3.045966 8.003447
H 1.717630 3.865092 7.886011
H 2.407095 2.760371 7.113920
O 9.082800 3.213839 2.707389
H 8.955566 2.268276 2.630229
H 8.271860 3.533633 3.102788
O -3.102192 13.321789 -1.233200
H -3.803984 12.915503 -1.741779
H -2.306253 13.135934 -1.731368
O 9.914577 9.249529 8.929136
H 10.578503 8.693893 9.337427
H 9.203869 9.284207 9.569390
O 13.394133 24.114442 11.526386
H 14.138943 24.011717 10.933986
H 13.592913 23.537783 12.264073
O 0.531712 -5.954597 9.759083
H 1.178122 -5.313811 10.055358
H 1.007029 -6.785293 9.743332
O 4.637486 3.729818 17.141985
H 4.421064 2.822495 16.927143
H 4.541224 4.201818 16.314831
O 0.210012 4.608390 -1.841950
H 0.307057 5.549486 -1.987384
H 0.834207 4.407701 -1.144571
O 9.656737 10.016318 6.318390
H 9.847399 9.902711 7.249504
H 8.769666 10.375323 6.297126
O 11.199922 7.557016 10.453066
H 11.780280 8.218955 10.828904
H 10.595565 7.337287 11.162081
O -3.080434 8.572920 2.637512
H -2.314773 8.694278 3.198999
H -2.848746 9.009911 1.818005
O -1.478705 7.833207 13.817317
H -2.111541 7.145098 14.022881
H -1.622175 8.499705 14.489201
O 0.605176 12.625483 7.229614
H -0.088026 12.865561 7.844484
H 0.309698 12.971891 6.387637
O 5.769905 1.845960 -3.170556
H 6.597398 2.190781 -3.506094
H 5.266604 1.625029 -3.954207
O 16.819918 6.543118 -4.877906
H 17.693338 6.154426 -4.925723
H 16.307273 6.062082 -5.527545
O 9.618524 3.583456 6.192074
H 8.693884 3.707859 6.406077
H 9.949985 3.010747 6.883717
O 22.686269 10.022301 0.467425
H 22.981762 10.445303 1.273642
H 21.929861 9.499743 0.733905
O 17.097352 0.364801 14.206137
H 17.115166 -0.578728 14.366348
H 17.811959 0.712369 14.739771
O 2.283445 7.852742 3.315422
H 2.554693 7.108834 3.853249
H 3.103657 8.268736 3.050030
O -6.115297 7.517766 5.417522
H -6.937742 7.633491 4.941681
H -5.856257 8.404494 5.668208
O 4.821066 6.477958 6.990758
H 4.033857 7.010321 6.876202
H 5.538667 7.111201 7.007598
O -1.112854 8.561240 4.380285
H -1.258017 8.381290 5.309143
H -0.975973 7.699203 3.987362
Na 10.950906 3.701438 19.034882
