333
Lattice="14.884663 0.0 0.0 0.0 14.884663 0.0 0.0 0.0 14.884663" Properties=species:S:1:pos:R:3 pbc="T T T" ion=oh T=300.0 t_ps=4.0
O 6.952268 11.704615 5.408279
H 7.045587 10.763780 5.574784
O 0.755650 5.224126 8.555023
H 0.928557 4.330076 8.849997
H 1.517980 5.724515 8.846049
O 6.574454 5.109811 8.083828
H 6.323516 4.197505 8.228608
H 6.152894 5.346454 7.257681
O 6.116016 8.961282 9.224527
H 5.446481 8.677608 8.602044
H 6.939103 8.888745 8.741312
O -3.916369 7.984402 1.971150
H -2.965372 7.942876 1.870594
H -4.107570 8.917917 2.061837
O 5.659989 5.884067 5.515501
H 4.876791 5.667749 5.009497
H 6.379648 5.485953 5.025779
O 9.857955 8.814504 9.346218
H 9.492386 9.520690 8.813402
H 9.251140 8.084114 9.225644
O 13.252857 -2.504843 13.660026
H 13.614112 -2.692580 14.526329
H 13.817602 -1.816560 13.308513
O 10.725858 7.150492 14.320053
H 10.791038 7.569944 15.177983
H 10.557952 7.871067 13.712756
O 23.421190 10.491496 -7.159786
H 23.202209 11.349543 -7.523153
H 23.491152 9.918334 -7.923215
O 15.761369 7.014446 4.463277
H 15.303622 6.337405 4.961589
H 15.202199 7.171849 3.702498
O 9.616520 8.495664 5.662994
H 10.468039 8.226433 5.318519
H 9.063356 8.591334 4.887695
O 15.800300 14.595217 9.859380
H 16.232569 15.436907 9.714702
H 15.691331 14.227508 8.982369
O 9.881733 10.301526 16.775889
H 10.064059 10.681666 15.916539
H 9.093103 10.753551 17.075836
O 14.804078 4.095491 11.695540
H 14.250017 4.768256 12.091311
H 14.761567 3.359719 12.306329
O 17.764521 10.599289 -5.446298
H 18.145823 11.200467 -4.806433
H 18.066046 10.927540 -6.293390
O 7.650807 8.277754 3.707437
H 7.837647 9.188460 3.479538
H 6.700737 8.198926 3.621505
O 16.759522 11.073173 -0.717552
H 17.291034 11.826343 -0.975350
H 16.231489 10.875999 -1.491203
O 8.816846 -0.454234 7.458752
H 8.941881 -1.174059 6.840327
H 9.645479 -0.400216 7.934864
O 3.012000 12.971681 10.897497
H 2.267977 13.487020 10.585910
H 3.748987 13.266518 10.362565
O 9.735424 14.833256 12.000079
H 9.796847 15.175810 12.891771
H 9.797478 15.607541 11.440736
O -1.785369 9.834884 4.953854
H -2.252739 9.001129 5.005318
H -2.298321 10.431586 5.498885
O 9.271833 0.865318 14.587059
H 9.024311 -0.059308 14.592625
H 8.578284 1.296416 14.087683
O 9.583817 19.680539 11.546847
H 8.669234 19.648343 11.827439
H 9.605411 20.363925 10.876960
O 3.443586 6.178383 3.812372
H 3.810986 7.000232 3.487083
H 2.559882 6.407743 4.099937
O 16.919520 14.977154 1.211548
H 16.628576 15.147945 0.315772
H 16.382074 15.555445 1.752809
O 15.769842 9.674021 5.091420
H 14.841221 9.895211 5.020928
H 15.795341 8.719818 5.020153
O -0.237784 17.079559 13.565308
H -0.146725 16.145138 13.378765
H -1.145558 17.179716 13.851923
O 9.108463 4.062715 6.413586
H 9.796995 4.152749 7.072411
H 8.893263 3.130027 6.417276
O 4.646594 11.086526 4.367465
H 5.514055 11.304891 4.708141
H 4.412511 11.830402 3.812409
O 5.306520 10.767445 11.604176
H 5.272512 11.611600 11.154201
H 5.665922 10.163430 10.954385
O 16.170757 12.427361 19.519536
H 17.018106 12.546447 19.090524
H 16.087928 11.479988 19.628418
O 15.383343 6.102820 15.223308
H 15.899829 5.327590 15.443519
H 15.980496 6.652993 14.716405
O -5.718108 6.127091 8.867143
H -5.081885 5.423832 8.737226
H -6.536240 5.779114 8.512454
O 17.837349 10.383066 21.362500
H 18.226626 10.774984 20.580774
H 17.024454 9.984495 21.051735
O 13.309780 2.183980 9.284525
H 12.985634 1.349676 8.945262
H 13.097898 2.162161 10.217724
O 3.095629 6.759546 9.262778
H 3.475425 7.338127 8.601544
H 3.845138 6.455571 9.774704
O 2.792444 17.355802 11.987693
H 1.958327 17.065776 12.356968
H 3.033265 18.120707 12.510338
O 12.773726 5.150107 15.129385
H 12.520179 5.646614 14.351293
H 13.678289 5.413791 15.298114
O 5.230194 0.226182 -0.643917
H 5.805603 -0.128260 0.033953
H 5.660976 1.032845 -0.926680
O 1.915952 3.844034 0.736211
H 1.439453 3.035970 0.545915
H 2.298670 3.698865 1.601477
O -6.934220 5.514111 4.216445
H -6.854033 6.464641 4.295782
H -6.435209 5.168566 4.956592
O 12.308228 7.485861 7.889892
H 12.381539 7.660021 6.951529
H 11.476627 7.885993 8.143991
O 22.163888 4.152027 1.754836
H 21.408450 3.565969 1.800466
H 22.202955 4.560950 2.619410
O -2.069957 -4.104930 2.309059
H -2.983322 -3.865587 2.466256
H -1.824277 -4.628228 3.071970
O 5.527706 11.910765 16.099537
H 5.855887 11.589238 15.259805
H 5.710876 12.850163 16.084992
O 0.631914 13.147220 7.298759
H 1.208786 12.823079 6.607106
H 0.598087 12.434417 7.936724
O 6.341430 14.139530 4.453363
H 5.554059 14.327714 4.964113
H 6.594412 13.255504 4.719315
O 0.190442 -3.939297 9.108605
H 0.062048 -3.820220 10.049651
H 1.084029 -4.272972 9.028640
O 15.130150 16.832557 2.670884
H 15.606512 16.709593 3.491975
H 14.442233 16.167264 2.690583
O 3.778641 9.393359 15.403919
H 3.271342 10.098248 15.001415
H 4.681986 9.709592 15.389903
O 3.261478 0.968140 8.370146
H 2.730317 1.756376 8.483212
H 3.620561 0.793884 9.240161
O 7.561162 11.213417 2.848449
H 6.766541 11.302345 2.322236
H 7.274995 11.383574 3.745883
O 14.483722 0.935735 5.852584
H 13.857600 0.264451 6.123841
H 15.310149 0.670096 6.255926
O 8.882473 16.824197 17.026535
H 8.925949 16.348669 16.196947
H 8.271294 17.541816 16.860062
O 14.921233 10.381526 11.923578
H 14.076157 10.087503 12.263618
H 15.426353 9.576780 11.807517
O 7.684382 14.323692 9.997594
H 8.444041 14.184488 10.563079
H 8.033009 14.263383 9.108182
O 14.009264 7.143594 17.315269
H 13.627626 6.384113 17.755466
H 14.488650 6.775081 16.573232
O 5.509823 17.389930 8.148997
H 4.942032 16.644808 8.345561
H 5.372711 17.556701 7.216463
O 6.640159 -3.851151 13.928548
H 7.132055 -4.659579 14.072471
H 6.193726 -3.987412 13.092867
O 12.963732 8.336872 12.247067
H 13.498704 7.948910 11.554592
H 12.541622 7.589795 12.671250
O 5.208144 13.068440 9.579451
H 5.859004 13.751308 9.741636
H 5.475995 12.673860 8.749515
O 11.580213 -0.079779 23.625661
H 11.771165 -0.732170 24.299571
H 11.893522 -0.475898 22.812544
O 10.754356 10.950172 14.099212
H 10.451680 10.414088 13.366250
H 11.645984 11.202825 13.859633
O 11.209850 17.610493 18.316651
H 11.496170 16.736562 18.051139
H 10.253864 17.564024 18.303876
O 2.584751 15.464593 4.083528
H 2.616843 14.749432 3.448117
H 2.890149 15.072618 4.901647
O 7.310841 17.085275 13.128511
H 7.073135 17.955147 13.449525
H 7.355582 17.184377 12.177506
O 8.264541 8.865722 -0.936509
H 8.994080 8.799016 -1.552590
H 7.937839 7.969838 -0.853508
O -2.471312 5.437514 -2.778912
H -3.417619 5.361516 -2.901216
H -2.124944 5.567912 -3.661668
O -1.271096 4.384658 3.093173
H -0.682467 3.813854 2.599280
H -1.292966 4.004628 3.971428
O 15.846211 2.720759 9.293623
H 15.909305 3.064847 10.184608
H 14.926243 2.475159 9.195795
O 5.406156 1.801360 5.534418
H 6.346526 1.622756 5.528495
H 5.010001 0.991104 5.855011
O 4.772744 8.679831 3.094678
H 4.279019 8.854217 2.293393
H 4.574373 9.422387 3.665197
O 9.637244 -1.086638 2.674274
H 9.711532 -1.614048 1.878943
H 8.854260 -0.553557 2.536466
O 10.334276 9.295021 -2.757077
H 9.808754 9.353016 -3.555009
H 11.214530 9.078723 -3.064649
O 11.817330 15.212626 17.232304
H 12.620076 14.740971 17.454504
H 11.112749 14.600406 17.444399
O 11.612477 1.891449 15.087908
H 10.859809 1.424624 14.724871
H 11.882839 1.363423 15.839123
O 9.789670 4.406142 14.780080
H 9.767914 5.196750 14.240916
H 8.896984 4.318990 15.114366
O 4.787146 1.044690 10.538067
H 4.358444 1.303229 11.353913
H 5.504070 1.670477 10.434911
O 11.979453 -1.499180 10.925930
H 12.413725 -2.002972 11.614285
H 11.242059 -1.076849 11.366519
O 5.262229 2.421368 2.130281
H 4.320461 2.592367 2.122263
H 5.438774 2.091626 3.011379
O 5.643310 6.317190 10.286778
H 5.583700 7.265087 10.167743
H 5.889069 5.982021 9.424515
O 7.253464 6.484900 -0.051778
H 6.710636 6.336773 -0.826134
H 7.010877 5.780832 0.549613
O 3.007068 -1.179965 13.503539
H 3.821054 -0.704707 13.670237
H 3.162624 -1.640518 12.678964
O 12.085996 11.458688 -5.774278
H 12.020369 12.049816 -5.024283
H 12.963723 11.082712 -5.707428
O 0.462027 -0.465958 12.607218
H 1.338801 -0.804075 12.789364
H 0.313972 -0.668148 11.683405
O -5.644492 -2.283654 5.456394
H -6.551745 -2.582683 5.517264
H -5.609746 -1.787324 4.638665
O -0.712076 14.188436 3.034974
H -0.220108 13.641576 2.422485
H -0.215228 14.140697 3.851732
O 9.144810 -1.941853 -0.065341
H 8.379939 -2.420701 -0.384572
H 9.892136 -2.397693 -0.452569
O -1.012199 6.547191 10.076138
H -0.360226 5.878140 9.867491
H -1.380816 6.795690 9.228435
O 10.226971 5.688928 2.849070
H 9.460056 5.766362 3.416589
H 10.313426 6.551604 2.443424
O -1.976368 13.640027 6.601867
H -1.030369 13.568695 6.729258
H -2.271032 12.737323 6.481322
O 4.727531 7.961859 7.356026
H 4.552212 8.496162 6.581419
H 5.015531 7.118829 7.005900
O 8.132716 16.429553 5.700766
H 8.583009 16.240634 4.877494
H 8.025583 15.574475 6.117414
O 7.528392 2.228625 10.328853
H 7.185531 2.338361 9.441927
H 7.553408 1.280910 10.460927
O 6.056611 4.959356 12.626690
H 6.026122 5.226422 11.708007
H 5.141131 4.812238 12.864354
O 2.707998 7.227066 -1.054444
H 2.553408 7.690522 -1.877574
H 2.993007 7.908253 -0.445359
O 5.072281 11.984652 7.247718
H 4.373449 11.396586 6.961285
H 5.747216 11.901318 6.574108
O 11.031708 4.237004 8.514663
H 11.554278 4.552202 7.777234
H 11.504279 3.467517 8.832153
O -3.376778 11.439816 6.450498
H -3.605117 11.360465 7.376671
H -4.147043 11.839794 6.046838
O 1.964545 8.585327 11.263610
H 2.226229 7.922387 10.624654
H 2.397957 9.386472 10.969414
O 3.667177 14.212771 6.303657
H 3.984904 13.343188 6.546778
H 3.213060 14.529339 7.084550
O 3.564825 4.789128 -1.570505
H 3.249707 5.690873 -1.632056
H 3.090728 4.419552 -0.825605
O 11.025606 2.278722 -2.607605
H 10.768897 3.054800 -3.105636
H 11.004990 2.562421 -1.693645
O 12.594538 3.299565 5.663990
H 13.163418 2.540276 5.790825
H 11.936227 3.003842 5.035177
O 15.017072 12.190644 0.964643
H 14.876893 11.590614 1.697135
H 15.610979 11.720417 0.379499
O 18.004589 -2.212188 17.359660
H 18.721581 -2.653853 16.904594
H 17.594247 -1.666764 16.688569
O 2.833473 3.719005 3.312143
H 3.041449 4.604767 3.609467
H 3.059666 3.157629 4.053713
O -2.920248 7.201992 4.962810
H -2.625619 6.517213 5.563229
H -3.349427 6.728156 4.250408
O 6.337508 -0.048619 1.837511
H 6.450677 -0.387584 2.725502
H 5.714739 0.671954 1.933245
O -0.829016 5.404944 5.952177
H -1.322511 4.584911 5.967749
H -0.360387 5.418900 6.786697
Na 11.317165 4.160507 16.493914
