333
Lattice="14.762057 0.0 0.0 0.0 14.762057 0.0 0.0 0.0 14.762057" Properties=species:S:1:pos:R:3 pbc="T T T" ion=oh T=300.0 t_ps=32.0
O 8.351359 10.689237 6.629003
H 9.032361 10.816094 5.964365
O 1.540384 9.514788 5.585136
H 2.100090 9.865218 6.278072
H 2.060498 8.817190 5.186300
O 5.245628 8.565362 7.454982
H 5.369637 9.510019 7.547050
H 5.810129 8.319513 6.722091
O 4.370597 6.779301 12.567460
H 4.448292 6.163135 11.839082
H 5.243948 7.161746 12.652472
O -4.486003 11.437959 2.008696
H -3.695685 11.793741 2.414958
H -4.206266 11.170628 1.133189
O 7.803548 5.775840 6.077145
H 7.752202 5.588214 7.014371
H 7.558622 6.698221 6.003279
O 13.339804 11.420577 12.913017
H 13.121961 12.152460 12.335847
H 13.814507 10.806361 12.352992
O 12.776822 3.262151 12.750067
H 13.154082 3.230931 11.870901
H 12.888257 2.374577 13.090692
O 7.442600 7.541648 13.049494
H 7.921559 7.742437 13.853555
H 7.517658 8.336004 12.520724
O 24.769655 13.722118 -8.666609
H 24.354293 13.472216 -7.841227
H 25.317132 14.474378 -8.441650
O 14.520589 0.506760 0.467745
H 15.258671 -0.102089 0.495484
H 14.851099 1.262599 -0.017747
O 7.960355 9.420698 8.845215
H 7.249841 8.850923 8.550668
H 8.212162 9.913580 8.064259
O 14.322672 15.734658 7.344082
H 14.706602 14.899080 7.078299
H 14.925775 16.395144 7.003117
O 16.408724 13.797057 9.710710
H 16.861283 12.953599 9.710329
H 16.103753 13.906181 8.809979
O 14.037999 3.218208 18.797497
H 13.997252 4.168203 18.687579
H 13.628592 2.867332 18.006609
O 22.097610 9.774222 -3.189001
H 21.162314 9.906109 -3.344111
H 22.473037 9.667014 -4.062954
O 10.540860 6.866614 8.149473
H 10.100991 6.020198 8.229021
H 10.897403 7.034701 9.021743
O 16.451109 7.923662 2.015488
H 17.016627 7.816515 2.780302
H 17.056726 8.004496 1.278653
O 6.113775 -0.657079 11.712472
H 5.656318 -0.036837 12.280157
H 7.040773 -0.446741 11.825009
O -1.080494 7.878870 8.115970
H -0.387483 7.627120 8.726370
H -1.484489 7.050725 7.856749
O 10.760402 16.371297 14.880262
H 10.124620 15.779999 15.283227
H 11.278303 15.809814 14.303419
O -1.470392 11.689825 7.799339
H -1.904046 11.648923 6.946987
H -2.182306 11.614031 8.434687
O 5.774000 0.508883 21.884876
H 5.035086 1.117333 21.879760
H 5.693195 0.026292 21.062192
O 9.518572 19.597040 9.920404
H 10.297177 20.098151 10.163086
H 9.840105 18.706181 9.781774
O 7.632967 6.212474 1.417485
H 8.529136 6.482114 1.618499
H 7.716795 5.308837 1.113110
O 13.141209 13.477278 -3.776785
H 13.983073 13.200997 -4.138954
H 12.490414 12.998322 -4.289912
O 15.920572 5.321640 1.096540
H 15.833723 6.226937 1.395079
H 15.084328 5.127243 0.673293
O -2.243980 15.382374 13.262761
H -2.095618 14.810069 12.509975
H -1.517620 15.191458 13.856212
O 6.018154 0.135298 4.135736
H 5.802731 1.054728 3.979294
H 6.973567 0.101223 4.088229
O 5.752510 11.113978 6.989250
H 6.644427 10.887793 6.725516
H 5.865069 11.754564 7.691540
O 11.058787 11.913781 9.613354
H 10.214335 12.072060 9.191359
H 11.175126 10.964716 9.568938
O 17.858467 4.745226 18.703293
H 18.684139 5.087343 18.360577
H 17.482311 4.251585 17.974557
O 16.449814 2.759933 16.418666
H 16.451025 2.461330 15.509234
H 16.476121 3.714831 16.357762
O -2.276184 5.954301 6.391274
H -2.617212 5.103760 6.114666
H -3.042375 6.424811 6.719608
O 17.604860 12.184882 19.986414
H 18.546712 12.072414 19.857973
H 17.203743 11.572060 19.370146
O 9.001196 0.417387 9.519217
H 9.141206 0.152218 10.428236
H 8.904725 -0.406228 9.041113
O 2.654948 8.384746 11.418678
H 3.257673 7.826068 11.909427
H 2.897031 9.276506 11.668464
O 0.904826 16.985050 13.688675
H 1.373483 16.629872 12.933399
H 1.048809 17.929990 13.637796
O 9.432482 5.611772 18.826625
H 9.904408 6.443864 18.792857
H 8.810389 5.717734 19.546351
O 1.370214 1.921745 -9.453173
H 1.605518 1.249851 -10.093034
H 0.729882 2.470569 -9.905942
O -1.850386 -2.580743 2.927841
H -1.420024 -1.732750 2.818618
H -2.010038 -2.649371 3.869134
O -5.290603 8.481920 0.607515
H -4.908091 9.150379 0.039115
H -5.594923 8.965450 1.375512
O 11.924881 11.653426 5.445386
H 11.259668 12.329560 5.574096
H 11.552103 10.869960 5.849676
O 23.815279 9.342915 3.192965
H 24.199872 8.964818 3.983763
H 24.366368 10.100554 2.996708
O 3.007721 -3.830937 -1.728736
H 2.369859 -3.763835 -1.018200
H 3.818908 -4.101015 -1.298311
O 1.992102 14.406564 18.388588
H 2.280830 13.701728 18.968307
H 1.907500 13.991733 17.530108
O 5.746043 12.955598 9.181821
H 5.903387 13.400239 10.014749
H 5.416227 13.642005 8.601909
O 5.235914 12.360222 3.380599
H 6.079792 12.011646 3.667995
H 5.236698 13.268990 3.681219
O 3.316065 -7.937814 8.181175
H 3.730951 -7.191148 7.749213
H 3.534979 -7.831543 9.106926
O 11.418581 15.676059 7.169329
H 11.132393 16.152318 7.948755
H 12.366573 15.805934 7.143329
O 8.881123 14.562644 12.370585
H 9.062189 13.665682 12.651488
H 8.680029 15.031752 13.180358
O 0.543526 3.744830 8.091988
H -0.058059 4.259996 8.629512
H 0.735432 4.306536 7.341062
O 7.819928 11.652034 4.156472
H 8.315625 11.041830 3.610426
H 8.103844 11.459473 5.050085
O 18.376829 2.135099 6.754217
H 18.596936 3.063501 6.677696
H 17.629310 2.016591 6.168210
O 12.007168 18.227039 16.821085
H 12.556714 18.795803 16.281883
H 11.674654 17.567374 16.212391
O 7.026500 4.274940 12.078501
H 6.441461 4.335283 11.323305
H 7.886317 4.519319 11.736121
O 4.601522 10.634618 10.513299
H 3.988728 10.901338 11.198555
H 4.841213 11.450948 10.074680
O 16.029899 5.270267 20.492356
H 15.546865 6.004069 20.112299
H 16.542408 4.917770 19.764817
O 4.694194 19.859730 10.620349
H 4.204241 19.092728 10.323891
H 5.366346 19.988528 9.951130
O 3.992339 0.389473 15.440525
H 4.857812 -0.012968 15.368209
H 3.908391 0.613186 16.367421
O 14.243789 5.611588 11.162436
H 14.797008 5.313055 11.884279
H 14.853129 6.014273 10.543743
O 7.680791 17.135758 7.998108
H 8.115807 16.615946 8.673969
H 6.916715 16.615405 7.749808
O 8.653656 -0.332820 18.776393
H 9.083857 -0.480092 19.618694
H 8.422946 -1.209213 18.468270
O 10.220815 18.412767 13.366757
H 10.998918 18.338370 12.814260
H 10.297157 17.688237 13.987612
O 11.740622 18.185849 20.303339
H 12.535066 17.815480 19.918740
H 11.292099 17.436703 20.695564
O 6.107008 17.717831 3.470828
H 5.296128 17.696730 2.962635
H 5.856587 18.112747 4.306030
O 5.247723 18.436942 13.924538
H 5.789945 18.758562 13.204269
H 4.944320 17.577728 13.631403
O 2.998155 10.471724 -6.952314
H 3.675677 10.657498 -7.602454
H 3.469463 10.069341 -6.222802
O -4.501109 6.445200 -1.924918
H -4.442096 5.746803 -1.273005
H -5.356238 6.846443 -1.770027
O -0.986436 -0.240018 3.094622
H -0.428071 0.140005 2.416357
H -0.409682 -0.340245 3.851947
O 10.760796 2.484842 9.265726
H 10.185559 1.776020 9.553661
H 11.632807 2.220254 9.558677
O 3.605834 1.821205 3.291919
H 2.874053 2.312480 2.918587
H 3.211311 1.010782 3.614096
O 9.488073 11.537092 -2.557005
H 9.992467 11.373519 -3.353914
H 8.663339 11.071298 -2.695144
O 7.010839 -6.276526 5.513570
H 6.416768 -5.912694 4.857112
H 7.609172 -5.558464 5.720007
O 13.140221 16.096416 -4.962198
H 13.680991 15.907889 -5.729177
H 13.137841 15.279371 -4.463536
O 5.116273 9.587848 18.461037
H 4.858125 10.496036 18.303602
H 5.589228 9.332066 17.669127
O 11.009976 1.071283 18.330333
H 11.681866 0.420334 18.127698
H 10.191966 0.574498 18.347534
O 7.940121 3.600915 14.808425
H 8.655174 3.727450 14.184790
H 7.206692 3.296371 14.274041
O 4.584610 1.291016 12.889613
H 4.324692 0.884232 13.716173
H 3.812958 1.209823 12.329085
O 8.540939 -2.237817 8.223489
H 8.408182 -2.913208 7.558316
H 7.656557 -1.979247 8.482801
O 2.444909 -4.158811 2.440108
H 2.125327 -5.056300 2.347309
H 1.955427 -3.660861 1.785367
O 6.025844 8.631491 16.011601
H 5.255728 8.133634 15.737209
H 6.732517 7.986316 16.036017
O 8.460702 14.454028 0.896127
H 7.661339 13.933177 0.973370
H 8.445883 15.031051 1.659708
O 4.012839 -7.367316 15.200474
H 4.095778 -7.600340 14.275783
H 4.220107 -8.174729 15.670959
O 15.642790 11.241442 -14.907404
H 15.064363 11.272429 -15.669436
H 15.274574 10.552296 -14.354478
O 2.454788 1.309214 11.330397
H 2.667064 2.023706 10.729837
H 2.165002 0.595837 10.761758
O -1.285082 -5.184322 2.410498
H -1.019209 -5.429192 3.296828
H -1.476224 -4.248123 2.467306
O -2.846363 7.590932 1.570441
H -2.335470 8.378606 1.756961
H -3.662807 7.918243 1.192925
O 6.131485 -1.694255 0.907003
H 6.210622 -2.421855 0.290102
H 5.739783 -2.083880 1.688665
O 2.789782 2.992695 9.252334
H 1.898147 3.182252 8.960295
H 3.213025 2.597467 8.490171
O 8.793791 2.196461 2.388914
H 8.001773 2.177634 2.926114
H 8.490086 2.469113 1.523087
O -3.743470 10.377719 -0.756599
H -4.373444 10.780988 -1.353875
H -2.888527 10.584287 -1.134269
O 10.357415 9.172712 10.554227
H 10.948204 8.437472 10.717392
H 9.788680 8.870960 9.845906
O 14.951311 24.319928 11.718009
H 15.024829 24.394404 10.766547
H 15.618927 23.678393 11.960813
O 0.475457 -4.508398 9.000628
H -0.139378 -4.068309 8.413660
H 1.324866 -4.420450 8.568193
O 4.971896 4.912673 16.358358
H 4.911550 4.267141 15.654172
H 5.898103 4.918461 16.599894
O 2.050658 4.785774 -1.437399
H 2.972561 4.804286 -1.694274
H 2.041334 5.146033 -0.550630
O 10.717983 9.499943 7.014947
H 10.772817 8.669544 7.487877
H 9.784571 9.711949 7.009696
O 11.783527 6.704325 10.640631
H 12.684864 6.404113 10.757659
H 11.380632 6.595687 11.502086
O -1.348460 5.837844 3.675746
H -1.732271 6.099402 4.512710
H -0.945542 6.637012 3.336305
O -1.572193 5.119160 15.001393
H -2.046207 4.783670 14.240480
H -1.993636 5.956072 15.196830
O 0.617411 13.223669 7.209563
H 0.066812 12.440974 7.231015
H 1.258164 13.047533 6.520619
O 6.980058 5.037694 -5.821924
H 7.778279 5.036870 -5.293649
H 6.886012 4.131679 -6.116075
O 15.978634 7.070399 -5.140364
H 16.382549 7.539365 -4.410189
H 16.662439 7.032853 -5.809118
O 8.696928 3.021199 5.262768
H 8.289172 2.538329 5.981659
H 8.498347 3.939227 5.447219
O 20.517084 10.675211 -0.708540
H 21.279151 10.532594 -1.269918
H 20.559301 9.969862 -0.062837
O 16.497516 -1.080091 15.790138
H 16.272546 -1.862476 15.286656
H 17.327711 -0.784652 15.416340
O 3.084847 7.823308 4.288845
H 3.496790 6.990603 4.519358
H 3.791444 8.466005 4.351243
O -3.956605 7.901518 4.490586
H -3.649040 8.335253 5.286520
H -3.200991 7.914132 3.903117
O 4.136968 4.829555 6.629635
H 3.449272 4.900214 5.967582
H 3.812200 5.343704 7.368830
O -0.958711 8.257745 5.349197
H -1.158822 8.099370 6.271750
H -0.170940 8.801269 5.364378
Na 10.380648 3.476729 18.345578
