333
Lattice="14.754714 0.0 0.0 0.0 14.754714 0.0 0.0 0.0 14.754714" Properties=species:S:1:pos:R:3 pbc="T T T" ion=oh T=300.0 t_ps=40.0
O 6.450826 10.238504 5.982168
H 7.260757 10.719967 5.798305
O 0.729329 8.686033 5.947029
H 1.564204 9.021984 6.273147
H 0.441930 9.337478 5.307299
O 5.428699 7.339288 9.529788
H 5.282416 7.488794 8.595721
H 5.871684 8.131721 9.833179
O 4.247698 7.659829 13.386206
H 3.338155 7.958097 13.385825
H 4.632094 8.060851 12.606685
O -4.076905 13.304908 2.258588
H -3.223293 13.531353 2.627776
H -3.912981 13.200639 1.321311
O 7.178827 5.257849 10.481788
H 6.461087 5.843053 10.239677
H 7.523736 5.625059 11.295684
O 13.881536 13.668345 14.193582
H 14.621772 14.261851 14.066956
H 13.842005 13.158029 13.384726
O 12.628298 4.676624 14.142540
H 12.195358 4.577304 13.294642
H 13.052522 3.832353 14.295748
O 4.109633 4.931352 12.945238
H 3.490462 4.947323 12.215441
H 4.147832 5.838787 13.247454
O 25.964438 14.927044 -5.766890
H 26.450204 14.591591 -6.520372
H 25.694693 14.143844 -5.287237
O 14.321506 -0.395113 -4.123387
H 13.986852 -1.266846 -3.912867
H 14.621812 -0.465709 -5.029513
O 5.475128 7.856829 6.567038
H 5.423776 7.393259 5.731157
H 5.842278 8.712423 6.344798
O 15.156545 15.153205 7.086214
H 15.601082 14.877090 6.284729
H 14.479372 14.491149 7.225319
O 16.438543 8.921366 9.631175
H 17.022365 9.362590 10.248188
H 16.848244 9.054055 8.776324
O 17.241164 3.167777 18.816149
H 16.335819 3.345350 18.561101
H 17.689070 2.974784 17.992519
O 21.324384 9.530566 -4.022830
H 21.020673 10.099074 -3.315164
H 21.105598 10.006718 -4.823857
O 9.253646 6.772326 8.856742
H 8.905754 6.452948 9.689329
H 8.529806 6.669451 8.238920
O 14.784702 6.450319 -0.026117
H 14.170081 5.749173 -0.242606
H 14.565332 6.692448 0.873595
O 7.247917 -1.459474 12.186770
H 6.631912 -1.150668 11.522384
H 8.103595 -1.162452 11.877214
O -1.583840 8.636739 7.524841
H -0.651240 8.665701 7.311183
H -1.894427 7.820211 7.133626
O 10.487891 17.142013 14.864111
H 9.999080 17.364691 14.071829
H 11.319736 16.793939 14.543003
O -1.910017 11.062418 8.845033
H -1.642198 10.298944 8.333553
H -1.551972 10.903762 9.718454
O 8.287388 1.079665 22.555205
H 8.277924 2.003165 22.806782
H 7.400035 0.907648 22.240171
O 8.683724 20.720554 12.849105
H 9.496140 21.167797 12.612069
H 8.918294 19.792816 12.871716
O 7.245650 6.203195 2.411468
H 7.273224 6.678404 1.581017
H 7.524898 5.315041 2.189127
O 12.746929 16.105812 -2.652650
H 13.153429 15.268214 -2.874954
H 12.782874 16.612788 -3.463770
O 16.626247 4.295715 -0.091690
H 16.201317 5.153407 -0.086190
H 17.353436 4.392103 -0.706619
O -1.536572 16.838324 14.656097
H -1.451035 16.581041 13.738099
H -0.715176 16.559703 15.060956
O 6.117246 0.558249 6.303407
H 5.267769 0.842549 5.966072
H 6.580296 0.222909 5.535707
O 4.148166 11.510487 6.401320
H 4.937784 10.988259 6.259853
H 4.470864 12.348537 6.732634
O 13.072291 11.761443 12.244825
H 13.696818 11.055860 12.076447
H 12.283717 11.315332 12.553642
O 17.569058 5.845399 17.791736
H 17.630722 4.949950 18.124304
H 18.325031 6.294474 18.169980
O 15.716722 0.806669 13.881286
H 16.601014 0.528425 14.119697
H 15.841198 1.642265 13.431267
O -2.280785 6.407396 6.305301
H -2.977422 6.005599 6.824423
H -1.725916 5.674017 6.039769
O 16.895768 11.414139 18.671061
H 17.526883 10.787343 19.024689
H 16.089125 10.909509 18.566624
O 8.708428 -2.207995 8.189284
H 8.494688 -1.275089 8.174049
H 7.863261 -2.649256 8.104356
O 1.571485 8.440160 13.054681
H 0.860123 8.250138 13.666308
H 1.540090 9.389651 12.937574
O 1.274695 17.421433 11.936132
H 1.029074 17.444939 11.011281
H 1.229831 18.334584 12.219637
O 11.424273 5.471921 18.264842
H 11.147756 5.457553 17.348565
H 10.757573 5.996218 18.708525
O 3.504913 1.933383 -8.270566
H 2.953440 2.303300 -8.959965
H 3.157247 1.052389 -8.131969
O -1.944841 -2.254647 4.820652
H -1.815837 -1.415622 4.378354
H -2.894559 -2.336606 4.907545
O -3.668034 10.322507 -1.305801
H -4.357362 10.156017 -1.948716
H -3.779642 9.633790 -0.650482
O 10.150878 12.192065 5.331835
H 9.476601 11.969381 4.689968
H 9.794334 11.892614 6.168159
O 24.058957 11.126342 2.851609
H 24.791157 10.511060 2.890896
H 24.461600 11.964295 2.623694
O 3.157688 -4.153438 -3.376756
H 3.112339 -3.267679 -3.736765
H 3.934581 -4.145759 -2.817640
O 2.356997 14.341508 19.935728
H 3.044555 14.721776 19.389018
H 2.373913 13.407395 19.727451
O 4.978037 13.357686 8.757133
H 4.448634 13.308000 9.553058
H 5.421039 14.204157 8.816019
O 5.456338 12.969160 1.549727
H 5.896936 12.409585 2.189243
H 4.584005 13.112360 1.916824
O 3.350963 -9.390302 9.468119
H 3.929747 -8.654853 9.669007
H 3.935960 -10.145081 9.402404
O 14.054096 18.593011 8.055477
H 14.582812 17.922119 8.487445
H 14.460109 19.420861 8.312479
O 9.974403 13.655515 12.235613
H 10.438757 13.141903 11.574697
H 10.378864 13.401144 13.065033
O 1.104754 6.057983 5.095061
H 1.787014 6.072938 4.423847
H 1.121917 6.936673 5.474324
O 6.845012 12.039528 3.730117
H 7.584858 11.575313 3.338500
H 6.483087 11.421676 4.365335
O 22.330629 3.617576 8.226865
H 22.271706 4.068123 9.069342
H 22.402558 4.321834 7.582599
O 11.911073 17.171773 17.483433
H 12.052708 17.622453 16.650931
H 11.073646 16.721465 17.373116
O 9.340036 1.153160 11.004513
H 9.865471 1.054923 10.210472
H 9.585867 0.405281 11.549010
O 5.814815 11.083917 13.083027
H 6.488064 10.717542 13.656384
H 6.213895 11.873955 12.718601
O 14.936097 3.074851 16.867532
H 15.195454 3.616480 16.122143
H 14.250767 3.580364 17.304580
O 4.910228 17.775979 8.963208
H 4.725797 17.447121 8.083396
H 5.811120 18.095952 8.915854
O 5.873902 1.427940 14.372694
H 6.653818 0.899362 14.541715
H 6.066924 1.885709 13.554512
O 16.217176 5.533666 11.652285
H 16.256765 6.364164 12.126561
H 15.828593 5.758388 10.806865
O 10.130608 14.816517 5.817186
H 10.230170 13.873201 5.945534
H 9.496836 15.083721 6.482894
O 7.357743 -0.056571 18.853148
H 7.152728 -0.969490 18.651210
H 8.093188 0.156924 18.278890
O 10.659877 20.501488 15.654708
H 11.357576 20.000581 15.232169
H 9.940377 19.877431 15.750121
O 13.813255 19.067604 20.062018
H 14.008306 18.446851 20.764053
H 14.501850 19.729159 20.128448
O 7.447888 20.590741 6.839732
H 8.004524 20.945199 6.146372
H 6.750071 21.237957 6.941694
O 6.122976 17.839052 12.275945
H 5.358215 18.198682 12.725432
H 6.460598 18.568275 11.755871
O 3.252966 9.065113 -7.507664
H 3.510881 9.959903 -7.729163
H 3.913784 8.514086 -7.927093
O -5.361151 9.692007 -3.442662
H -4.893405 10.029391 -4.206612
H -6.268323 9.605571 -3.735577
O -1.509174 -0.073676 3.116272
H -0.564184 0.017821 2.994398
H -1.824707 0.823113 3.227810
O 12.035083 3.011919 9.293261
H 11.855565 2.114858 9.011684
H 12.692755 3.330447 8.675006
O 1.294758 0.575323 2.748872
H 1.321574 1.411899 2.284489
H 1.458441 0.803454 3.663966
O 10.623925 11.971308 -4.691779
H 11.338954 11.572510 -5.187689
H 9.931076 12.108450 -5.337831
O 4.873332 -4.953085 3.893365
H 5.373286 -4.469802 3.235554
H 5.447402 -4.980390 4.658825
O 9.372035 18.143407 -2.147833
H 10.165036 18.503446 -2.545016
H 9.292905 17.266199 -2.522634
O 4.482335 9.770931 15.920175
H 4.487583 10.676684 15.610635
H 5.163220 9.337515 15.405610
O 12.263277 1.716775 20.817271
H 12.871794 1.296443 21.424938
H 11.513180 1.123321 20.779887
O 8.724547 3.904707 16.501059
H 8.666607 3.322270 17.258450
H 8.885000 3.319993 15.760387
O 3.670251 -1.469665 11.090130
H 3.792408 -1.345067 12.031291
H 3.071226 -0.769447 10.831102
O 6.394587 -3.737852 8.481380
H 6.418631 -4.116325 7.602510
H 5.741131 -3.040708 8.424663
O -0.311569 -4.363225 4.090692
H -0.851830 -3.585558 4.230635
H -0.461745 -4.598166 3.175006
O 7.151529 7.472770 14.693297
H 6.265318 7.611254 14.359106
H 7.542388 6.846029 14.084481
O 9.520726 15.535219 2.484857
H 9.186285 15.529287 1.588004
H 10.032889 14.729642 2.555332
O 3.853602 -12.392810 16.075920
H 4.540039 -12.808673 15.554294
H 3.609397 -11.614778 15.574660
O 15.451751 11.830626 -14.462444
H 14.948427 12.612934 -14.688037
H 16.211567 12.163556 -13.984879
O 0.765449 -2.935942 9.924195
H 0.822134 -3.543333 9.186568
H 0.607734 -3.495732 10.684453
O 2.757114 -1.601579 1.879814
H 2.632407 -2.237545 2.584247
H 2.232035 -0.845793 2.143086
O -0.577471 9.629469 1.301944
H -0.257582 10.386738 0.811590
H 0.177660 9.044006 1.358884
O 7.470251 -0.667214 0.031118
H 7.449918 -1.135023 -0.803731
H 6.788107 -1.084872 0.556925
O 1.336183 2.251526 8.852218
H 2.269325 2.375046 9.026059
H 1.300650 1.509138 8.249036
O 9.246389 2.778178 4.387393
H 9.270790 1.937476 3.930385
H 8.451397 2.739311 4.919097
O -3.607429 12.826215 -0.254631
H -3.629631 11.869541 -0.277277
H -2.676035 13.045352 -0.281382
O 10.291753 9.192716 8.229898
H 11.238169 9.117840 8.107743
H 10.036820 8.366960 8.641441
O 13.197672 23.073222 13.199807
H 13.577593 22.379988 13.739547
H 12.974029 23.765958 13.821364
O -0.395821 -5.166540 11.003987
H 0.343136 -5.656033 10.642642
H -0.865330 -5.803564 11.542497
O 4.458505 0.693842 18.445977
H 4.441662 1.454686 17.865405
H 5.377605 0.427187 18.465532
O -2.994769 4.379583 -3.178800
H -2.908955 3.871246 -3.985312
H -3.217759 5.262363 -3.474109
O 8.875483 8.943571 5.964047
H 9.291945 9.153972 6.799823
H 7.996553 9.316281 6.033331
O 10.922077 7.385698 11.868308
H 11.715572 7.766139 12.244954
H 10.349671 8.135691 11.706772
O -3.320845 9.442633 3.342841
H -2.997957 8.975431 4.113359
H -2.529743 9.741140 2.894195
O -4.032748 8.501759 15.364543
H -4.059994 7.548969 15.276903
H -3.947193 8.653841 16.305704
O -1.669701 13.599545 7.303910
H -1.680802 12.792201 7.818015
H -1.754762 13.307344 6.396377
O 6.266258 0.608501 -4.399171
H 7.145608 0.913578 -4.175777
H 5.734301 1.404004 -4.419893
O 15.480370 6.179532 -5.718039
H 16.395742 5.914671 -5.808461
H 15.503343 7.136027 -5.746724
O 10.689426 4.290552 6.945301
H 11.014712 3.571756 7.487291
H 10.014690 4.708332 7.480486
O 22.556488 9.950975 0.118866
H 23.387858 10.021842 0.587942
H 22.414646 9.009228 0.022818
O 18.684820 -0.549021 13.635144
H 18.951812 -0.869083 14.496832
H 19.353306 0.094644 13.400507
O 1.955721 8.448865 2.186903
H 2.153456 7.512977 2.151598
H 2.695094 8.867172 1.745792
O -5.548902 6.927678 4.399826
H -5.986765 7.174430 3.585196
H -5.563326 7.723995 4.930771
O 5.088065 7.071113 3.838845
H 5.052949 8.026966 3.875492
H 5.805184 6.880314 3.234223
O -0.860741 6.652546 2.818347
H -0.224587 6.594176 3.531181
H -1.655023 6.252342 3.172160
Na 11.441550 3.542514 19.576828
