333
Lattice="15.218228 0.0 0.0 0.0 15.218228 0.0 0.0 0.0 15.218228" Properties=species:S:1:pos:R:3 pbc="T T T" ion=oh T=300.0 t_ps=8.0
O 8.016147 11.544812 4.211912
H 7.658416 10.945067 3.553168
O 0.826267 5.636096 8.215519
H 0.295280 4.890792 8.496243
H 1.722702 5.300735 8.202462
O 7.565209 5.889429 8.146501
H 6.971521 5.139333 8.113013
H 7.107501 6.579388 7.666196
O 5.362572 6.850712 9.502164
H 5.452929 7.491533 8.796887
H 6.141168 6.299093 9.426419
O -4.189994 8.452609 -0.113340
H -3.377220 8.059448 0.204551
H -3.927766 9.311865 -0.443712
O 6.240473 7.884010 6.897875
H 5.475748 7.699928 6.352401
H 6.865361 8.298621 6.303027
O 9.452536 8.557969 11.513856
H 9.671176 7.814730 10.951696
H 9.320738 8.172964 12.380246
O 12.828212 -2.059576 15.112190
H 13.555626 -2.681512 15.129370
H 13.212463 -1.250101 14.775539
O 8.842351 7.363216 14.064062
H 9.620275 7.810488 14.397249
H 8.107910 7.830189 14.462515
O 25.015891 9.186187 -7.398916
H 24.793952 10.091286 -7.180353
H 24.495770 8.993210 -8.178958
O 17.002255 7.638344 3.843735
H 16.360133 7.534334 4.545940
H 16.562435 7.299133 3.064167
O 8.274628 9.023968 5.313625
H 9.154710 8.749228 5.056319
H 8.243734 9.957426 5.104024
O 15.331882 14.704519 11.860143
H 15.545775 15.589764 11.565484
H 16.179838 14.268976 11.946769
O 10.955197 12.646034 17.001173
H 11.457634 12.855510 16.213831
H 10.046313 12.609286 16.703160
O 15.600911 2.670471 13.621301
H 14.905851 3.243564 13.944854
H 15.262383 1.784838 13.752769
O 18.741430 11.735755 -4.332758
H 19.451262 12.206153 -4.769903
H 19.172544 10.998430 -3.900640
O 6.402842 6.881917 2.963647
H 7.228464 7.321945 2.761270
H 5.743852 7.368659 2.468625
O 15.977493 11.532607 -0.933059
H 16.577014 12.168492 -1.323518
H 15.745108 10.947641 -1.654200
O 9.680824 2.310235 8.116961
H 10.390610 1.688048 8.276079
H 9.541668 2.736914 8.962427
O 4.961897 13.871581 9.163375
H 4.184601 14.420028 9.269441
H 5.543337 14.139145 9.875111
O 9.615722 14.764919 11.774599
H 9.352667 13.921290 11.406734
H 9.437277 14.684294 12.711556
O -4.537561 8.185495 4.218203
H -3.937104 7.943477 4.923264
H -4.203193 9.022055 3.894790
O 7.246813 0.894214 15.029147
H 6.516692 0.538735 15.535891
H 6.832675 1.325457 14.281651
O 8.639759 18.722371 10.508342
H 7.722914 18.708711 10.783008
H 8.798802 19.629656 10.248012
O 4.481506 7.313126 5.052277
H 5.055797 7.055157 4.331254
H 3.616887 7.400428 4.650974
O 15.696147 14.863407 0.958212
H 15.446445 14.005849 1.302413
H 15.571068 15.462956 1.693826
O 17.001503 10.500020 5.320082
H 16.936096 9.781324 4.691250
H 16.115715 10.593578 5.670593
O -3.950198 16.686932 14.509981
H -3.107307 16.357575 14.198067
H -4.533987 15.929492 14.468667
O 11.545557 4.487332 5.513054
H 11.673378 5.359469 5.886244
H 10.704124 4.196720 5.864860
O 5.432007 11.656036 4.159484
H 6.381957 11.682680 4.274008
H 5.232312 12.428319 3.630398
O 6.703909 9.622113 11.124229
H 6.406733 9.590171 10.214889
H 7.612972 9.324323 11.090221
O 17.217126 12.801389 19.064698
H 17.579543 13.615638 19.413817
H 17.440376 12.139362 19.719000
O 15.776946 6.493849 16.410696
H 16.052296 5.578440 16.460103
H 16.296630 6.862559 15.696404
O -5.666443 6.110811 10.215377
H -4.734712 5.909833 10.127534
H -5.972422 6.228360 9.316049
O 19.295159 11.167043 21.905105
H 19.939036 11.132970 21.197649
H 18.492129 10.821110 21.515610
O 11.476126 0.350917 9.214902
H 12.169502 -0.288630 9.377510
H 10.799694 0.140401 9.858606
O 3.959062 5.342910 7.671364
H 4.599281 4.636169 7.754247
H 4.205620 5.970924 8.350362
O 3.087285 17.857518 14.078510
H 2.146540 17.849260 13.901980
H 3.274544 18.759155 14.339694
O 13.678606 4.410278 14.608390
H 13.035634 4.951259 14.149961
H 13.941638 4.937520 15.362752
O 4.632981 -0.774558 -1.034812
H 5.148657 -0.122415 -1.509174
H 4.023578 -0.259981 -0.505597
O 1.901479 3.975676 2.118664
H 1.025061 3.675952 2.360096
H 2.458871 3.697707 2.845493
O -5.036274 6.914632 1.952156
H -4.945632 7.569518 1.259957
H -4.886328 7.400370 2.763209
O 12.431575 8.160000 8.693927
H 13.071669 8.862890 8.805542
H 11.582351 8.599255 8.739792
O 23.384710 4.819438 1.798461
H 22.558400 5.105511 2.187827
H 24.027349 5.461191 2.100786
O -0.794563 -5.377513 2.243376
H -1.103731 -5.316956 3.147245
H -1.453193 -5.911961 1.799751
O 5.575590 15.040205 17.209849
H 5.597365 14.191857 16.767058
H 4.722092 15.408364 16.981307
O 2.832739 15.357231 9.025866
H 2.286380 15.822379 9.659397
H 2.331954 15.385538 8.210608
O 8.623857 14.031961 4.830339
H 8.871097 14.017379 5.754942
H 8.619179 13.111247 4.568621
O 0.728111 -3.857066 9.502635
H 0.060739 -4.239971 10.072048
H 1.487260 -3.733086 10.072330
O 15.390148 15.788305 3.969141
H 15.981057 15.862466 4.718513
H 14.841726 15.029964 4.170098
O 2.889705 9.959050 15.163607
H 2.158803 10.552761 14.991788
H 3.392581 9.955511 14.349154
O 0.491928 1.830129 10.764774
H -0.290326 2.154495 10.318572
H 0.494486 2.285948 11.606471
O 7.783767 12.424324 1.785959
H 6.855844 12.273339 1.605976
H 7.899721 12.149071 2.695366
O 15.244634 2.494498 7.300206
H 15.246173 1.552370 7.469394
H 16.157814 2.704749 7.104938
O 9.411045 17.359903 17.078084
H 8.952336 16.876385 17.765126
H 8.884840 18.148769 16.947582
O 15.270859 10.130560 12.110038
H 14.566162 9.568133 12.431457
H 15.837127 9.543326 11.609310
O 6.261988 14.990373 11.466296
H 6.750509 14.182884 11.626112
H 6.883456 15.561475 11.014796
O 13.081872 7.219198 16.189819
H 12.618586 6.511083 16.637223
H 14.002790 7.081022 16.411293
O 6.037000 18.716227 7.900727
H 5.926805 17.868220 8.330813
H 5.843705 18.544787 6.979056
O 4.970189 -2.634435 16.037020
H 4.107758 -2.776801 16.427118
H 4.791721 -2.152516 15.229472
O 13.454337 8.030663 12.778786
H 13.788824 7.362878 12.180109
H 12.956593 7.539410 13.432356
O 10.309088 12.051750 8.324673
H 10.657434 12.458520 7.531309
H 9.360211 12.152704 8.249352
O 13.652586 -1.180719 25.042983
H 14.218255 -1.192846 25.815061
H 13.526954 -2.103788 24.823000
O 11.432845 10.961511 13.922232
H 11.767176 10.817925 13.036886
H 11.693820 11.857549 14.134928
O 12.004645 16.323188 17.655500
H 12.478420 15.626710 18.110130
H 11.115357 15.983274 17.556221
O 2.359476 16.708097 5.935340
H 3.059746 16.070186 6.072904
H 2.718142 17.324181 5.296567
O 6.600592 19.829900 12.580038
H 6.107778 19.065396 12.878199
H 7.503808 19.649861 12.840843
O 4.439421 9.699770 -2.354547
H 4.239257 8.895387 -2.833227
H 5.394252 9.707995 -2.287747
O -4.079984 5.581731 -1.999830
H -4.854337 5.692681 -1.448197
H -4.425051 5.536336 -2.891514
O -0.461394 3.041815 2.808781
H -0.602522 2.123840 3.040376
H -0.560375 3.515615 3.634583
O 13.381016 2.715150 9.393044
H 12.634366 2.116936 9.363276
H 13.749651 2.682976 8.510262
O 6.290692 3.325702 5.037117
H 7.134559 3.693287 5.299800
H 6.515610 2.536139 4.544945
O 5.170941 9.902244 2.111163
H 4.609837 10.286753 1.437704
H 5.049855 10.466136 2.875098
O 10.574940 -4.006167 4.196523
H 10.847488 -3.733138 3.320507
H 9.620839 -3.929973 4.185656
O 11.810163 9.866939 -3.658102
H 10.936601 9.491032 -3.766800
H 12.362771 9.123824 -3.415954
O 8.657680 11.974120 14.348710
H 9.442618 11.539197 14.015622
H 8.437329 11.493512 15.146640
O 9.234348 -0.787977 14.927767
H 8.454615 -0.289350 15.171937
H 8.902972 -1.658066 14.705581
O 9.195229 3.881949 14.399849
H 8.818050 4.567725 14.950920
H 8.793706 3.072427 14.715577
O 5.651739 2.132305 13.060772
H 4.709092 1.968177 13.087406
H 5.978018 1.547057 12.377208
O 13.039306 -3.824952 9.027394
H 12.903302 -4.341010 9.822012
H 12.163654 -3.525432 8.782951
O 3.125280 0.557054 0.646697
H 2.277528 0.170113 0.865387
H 2.908931 1.402637 0.253741
O 4.058614 7.140000 11.974620
H 4.515706 6.943764 11.156824
H 4.511058 6.614549 12.634488
O 6.506771 8.992728 -0.305097
H 5.935966 8.225274 -0.342877
H 6.262314 9.433817 0.508484
O 2.361597 -1.862047 12.841993
H 3.062332 -1.542656 13.410492
H 2.789751 -2.495422 12.266014
O 14.895488 11.149280 -8.274941
H 13.964803 11.262266 -8.081829
H 15.326434 11.208612 -7.422300
O -1.034428 0.233943 14.184255
H -0.352525 0.049886 14.830292
H -0.708476 -0.156535 13.373383
O -3.739179 -2.263573 6.057238
H -3.130080 -1.857331 5.440636
H -4.184995 -2.938148 5.544960
O -2.156965 14.034439 3.660789
H -2.977790 13.546203 3.596737
H -1.525275 13.507091 3.171806
O 7.340311 -2.893110 -3.191744
H 7.147286 -3.799409 -3.431733
H 7.652102 -2.945295 -2.288254
O -0.786053 6.895015 10.386563
H -0.025169 6.622208 9.873860
H -1.403159 7.234295 9.738258
O 11.668778 4.671877 2.404031
H 11.760686 4.639963 3.356273
H 10.977130 5.315673 2.251126
O 0.112626 15.079026 7.718836
H 0.328632 14.200073 7.407366
H -0.550921 14.938001 8.394150
O 5.995501 10.153851 8.444393
H 5.244701 10.591097 8.042711
H 6.191681 9.424796 7.855984
O 8.571411 19.420304 6.268182
H 8.686165 18.603026 6.753075
H 8.386283 20.074908 6.941571
O 6.835563 0.953520 8.675407
H 6.396295 0.185689 8.309742
H 7.591192 1.092315 8.104449
O 5.665464 6.347000 14.622205
H 6.193055 5.776958 14.062803
H 4.979414 5.775904 14.967772
O 2.200899 7.423748 -0.893528
H 2.040904 7.697881 -1.796570
H 2.606318 8.185713 -0.479671
O 7.883881 12.073520 6.951826
H 7.338678 11.483941 7.472769
H 7.755690 11.783638 6.048628
O 12.224281 5.157417 10.023238
H 13.140548 5.255691 10.282140
H 12.052953 4.218697 10.098624
O -1.921372 10.312200 4.776501
H -1.397886 10.254804 5.575813
H -2.604079 10.950852 4.982087
O 1.723839 8.357016 10.866642
H 2.491279 7.793724 10.966488
H 1.913133 8.885268 10.091175
O 5.864466 14.456767 6.585472
H 6.619925 13.892468 6.420913
H 5.370981 14.003797 7.269229
O 3.320604 5.110437 0.109324
H 2.735479 5.809271 -0.183067
H 2.830703 4.659164 0.796770
O 11.097452 2.835970 -3.437968
H 10.996828 3.375140 -2.653492
H 10.202721 2.601666 -3.684524
O 14.181587 4.149345 5.367429
H 14.458199 3.558410 6.067797
H 13.228439 4.064462 5.344265
O 14.927778 12.562789 2.227217
H 15.756113 12.536836 2.706194
H 14.762667 11.651898 1.983806
O 19.162394 -0.672563 19.914879
H 19.776022 -0.793103 20.639561
H 19.716287 -0.455628 19.164963
O 3.412995 3.551183 4.579251
H 2.914484 4.291576 4.924991
H 4.325626 3.764649 4.773593
O -2.950341 6.892742 6.257716
H -3.058845 7.081284 7.189869
H -2.006482 6.950771 6.109410
O 7.561768 0.860250 3.786497
H 8.039090 0.084876 4.081778
H 7.093518 0.570141 3.003675
O -0.080683 6.737846 5.900777
H -0.330047 5.908812 5.492425
H 0.323874 6.484565 6.730484
Na 11.525074 2.876447 16.216846
