333
Lattice="14.956394 0.0 0.0 0.0 14.956394 0.0 0.0 0.0 14.956394" Properties=species:S:1:pos:R:3 pbc="T T T" ion=oh T=300.0 t_ps=16.0
O 7.570151 12.978049 4.427790
H 7.104346 12.763405 3.616275
O 4.127817 5.236127 7.970044
H 3.914179 5.914743 8.610412
H 5.021306 4.971930 8.189379
O 7.394559 6.211253 10.033857
H 6.635109 5.641525 10.155828
H 7.060335 7.094009 10.192818
O 8.400192 5.094749 12.312126
H 8.430003 5.514046 11.452164
H 8.775462 5.742849 12.908256
O -3.906130 10.933032 1.711694
H -3.242451 11.621939 1.745879
H -4.281252 11.004523 0.833967
O 5.011918 7.739515 4.134933
H 5.325977 8.205921 4.909571
H 4.059287 7.733609 4.228164
O 10.280079 8.505023 9.236959
H 11.101703 8.396969 8.757907
H 10.079388 7.630205 9.569597
O 13.292122 -2.382774 14.514528
H 13.185213 -3.273424 14.180543
H 13.453101 -1.851712 13.734598
O 9.549813 7.109898 13.936093
H 9.730358 7.523017 13.091719
H 8.978135 7.729697 14.389154
O 27.170442 13.231822 -4.577124
H 26.293202 13.208128 -4.959381
H 27.734074 13.535943 -5.288504
O 16.996295 7.058892 4.631549
H 17.240908 6.520889 5.384510
H 16.462844 6.480478 4.086481
O 6.878705 11.842108 6.751591
H 6.757565 12.564392 7.367921
H 7.159210 12.264077 5.939500
O 14.226189 14.142742 11.983362
H 13.557482 13.749585 11.422568
H 15.046358 13.741121 11.696560
O 12.588728 13.423878 16.981606
H 12.893717 13.153727 16.115447
H 11.890588 14.054290 16.804368
O 14.243965 3.429459 14.475621
H 13.681369 3.719509 15.193667
H 14.875527 2.840456 14.888461
O 16.060491 10.549163 -4.498855
H 16.149741 11.471869 -4.260360
H 16.322098 10.071447 -3.711720
O 8.238682 6.296480 3.612290
H 8.176085 7.103140 3.100808
H 7.367318 5.905103 3.550808
O 13.878428 9.999426 -1.859960
H 13.444566 10.258179 -2.673005
H 13.441741 9.187378 -1.602831
O 5.095290 1.427077 8.476204
H 5.236689 0.493043 8.630542
H 4.507977 1.700539 9.180840
O -0.646479 13.220891 8.520248
H -0.570100 12.683036 7.732142
H 0.231193 13.579411 8.652108
O 8.902110 14.160500 12.350225
H 8.355867 13.640216 11.761026
H 8.351564 14.309493 13.118946
O -4.659970 10.191263 6.536112
H -3.705411 10.121371 6.548983
H -4.875708 10.362701 5.619434
O 6.377931 0.326348 15.863214
H 6.174828 -0.189446 15.082869
H 5.673855 0.119259 16.477725
O 7.037012 16.910579 10.243978
H 6.646400 17.664084 10.686566
H 6.426071 16.704568 9.536488
O 5.520551 5.511429 2.758503
H 5.523022 5.849891 1.863143
H 5.258880 6.258466 3.296736
O 16.082711 14.085934 0.632313
H 15.490081 13.443896 0.241406
H 16.029356 13.919931 1.573498
O 16.471555 8.437144 1.675088
H 17.030927 7.694987 1.904294
H 16.126036 8.745019 2.512980
O -4.092814 15.878143 15.543345
H -3.402696 15.952557 14.884230
H -4.708477 15.244109 15.175661
O 10.162305 3.406395 6.216538
H 9.922395 4.217268 6.665047
H 9.727213 2.716940 6.718114
O 5.136689 11.675103 4.485583
H 6.056005 11.941428 4.498325
H 4.890153 11.707795 3.561255
O 8.077910 10.148031 9.073095
H 8.139034 10.616034 8.240348
H 8.848206 9.579961 9.086233
O 18.088935 9.897156 15.101666
H 18.644191 10.356680 15.731555
H 17.558684 9.305772 15.635829
O 17.403456 5.742393 16.139492
H 17.439688 4.815416 16.375358
H 16.509831 5.874753 15.823032
O -3.955903 5.839219 9.941288
H -4.462275 5.503055 9.201820
H -3.556267 5.061942 10.331627
O 18.048069 11.122151 21.508328
H 18.780530 11.168863 20.893877
H 17.848986 10.188179 21.573862
O 9.836946 1.480965 10.112751
H 10.064686 0.693310 10.606679
H 8.880050 1.502606 10.123384
O 4.767470 8.209048 8.134916
H 3.843070 8.428127 8.252051
H 5.113653 8.145285 9.025042
O 0.909409 16.861883 16.187973
H 1.865843 16.898762 16.198228
H 0.706214 15.932757 16.079945
O 12.478029 3.817910 16.612094
H 12.217871 4.601239 16.127383
H 12.538611 4.107978 17.522271
O 1.450009 -1.822320 -4.111567
H 1.862483 -1.403429 -4.866966
H 1.989758 -1.558423 -3.366409
O -0.300394 2.320638 3.636244
H 0.316397 2.032527 4.309143
H 0.198951 2.281827 2.820536
O -2.490559 8.522904 1.241877
H -2.965572 9.351944 1.299222
H -2.419811 8.223654 2.148341
O 12.839916 9.725672 7.510583
H 13.599877 9.183484 7.299103
H 13.168055 10.361152 8.146760
O 25.447926 7.408278 5.751393
H 25.377195 8.281650 6.136687
H 24.731546 7.366706 5.117908
O -0.057525 -8.537118 0.258880
H -0.973046 -8.489045 -0.016333
H 0.179289 -7.632593 0.463781
O 4.618847 11.601615 16.875518
H 5.516555 11.484867 16.564517
H 4.531104 12.545748 17.006458
O 1.384078 17.291346 8.393456
H 0.553721 17.649896 8.706794
H 1.629200 17.857745 7.661787
O 7.650639 15.485540 5.284745
H 8.296728 15.524673 5.989918
H 7.748257 14.606656 4.918321
O 1.943133 -6.255141 8.560817
H 1.751849 -7.160984 8.803901
H 1.614721 -5.735334 9.294423
O 18.082246 16.257106 5.144792
H 18.654993 16.985786 4.905589
H 18.680982 15.542756 5.362628
O 3.548993 12.790730 13.003477
H 2.718542 12.397482 13.271689
H 3.886554 12.201762 12.328643
O -0.441051 4.223900 9.251265
H -1.208497 3.750396 8.930247
H -0.578964 4.292057 10.196022
O 9.459275 13.499584 2.898775
H 10.110966 13.994145 3.395705
H 8.752118 13.339113 3.523602
O 17.209071 4.152119 6.283370
H 17.506174 4.326059 5.390226
H 17.947707 4.407524 6.836016
O 8.549649 16.290809 17.775492
H 8.183128 16.331925 18.658783
H 7.855971 15.897672 17.245882
O 17.136711 6.228624 12.493556
H 16.541848 6.034612 13.217937
H 17.752480 5.495821 12.485839
O 5.983811 13.861530 8.882857
H 6.501097 13.777189 9.683815
H 5.442933 13.072063 8.862242
O 14.874773 5.129117 18.763260
H 14.812418 4.189967 18.589074
H 14.813438 5.201124 19.715775
O 3.378499 17.110488 10.280066
H 2.566660 17.321161 9.818801
H 3.092225 16.675853 11.083416
O 6.319526 -1.571977 13.818901
H 6.784503 -2.396279 13.962267
H 5.392996 -1.809095 13.858254
O 12.288512 7.373938 12.184772
H 11.998319 6.976667 11.363678
H 12.697463 6.655656 12.667536
O 9.575764 15.792433 7.199233
H 9.470597 16.009482 8.125549
H 10.485755 15.505833 7.121713
O 13.052897 0.388719 22.315611
H 13.654444 -0.320371 22.542687
H 12.754666 0.176447 21.431173
O 10.239289 11.316425 14.007685
H 10.301408 10.566270 13.416381
H 10.031593 12.055799 13.436353
O 11.860547 16.716813 19.020293
H 12.794150 16.817329 18.834510
H 11.798188 15.887924 19.494936
O 3.516448 17.966746 1.577351
H 4.379873 17.825870 1.188913
H 3.697825 18.195425 2.488965
O 5.933768 19.469197 13.608204
H 6.127178 18.650345 14.064609
H 6.741589 19.679424 13.139736
O 4.779198 10.633588 -3.487292
H 4.016234 10.165170 -3.148614
H 4.520557 10.909499 -4.366616
O -3.057395 6.063262 0.311756
H -3.157304 6.906714 0.753163
H -3.293030 6.239661 -0.599063
O 0.485147 0.821817 5.777767
H 1.353029 0.942305 5.392416
H 0.579596 1.124009 6.681090
O 11.419256 3.411812 10.725976
H 10.872825 2.787401 10.248739
H 11.012753 3.474858 11.590274
O 6.087088 2.637044 5.841662
H 6.535353 1.800447 5.717582
H 5.725557 2.586673 6.726529
O 7.738431 8.884161 2.702628
H 6.965210 9.013007 3.251956
H 8.447036 9.314731 3.180876
O 9.658316 -4.328038 3.930098
H 10.242053 -4.282107 3.172884
H 9.268365 -3.455644 3.985771
O 10.377868 9.291326 -2.872390
H 10.319406 9.640744 -3.761615
H 11.223233 8.843129 -2.845753
O 7.416715 10.989421 14.707854
H 8.315209 11.289542 14.570494
H 7.490574 10.038197 14.784981
O 8.767888 -0.998657 15.310409
H 7.892300 -0.634152 15.439690
H 8.938426 -1.501656 16.106738
O 9.298665 4.489890 15.823714
H 9.221438 5.140521 16.521529
H 9.729201 4.956334 15.107264
O 2.584772 0.323829 12.616053
H 2.237572 0.755636 13.396583
H 3.012307 -0.465406 12.948547
O 9.635450 -2.148630 9.182324
H 9.384231 -1.985138 8.273263
H 8.805442 -2.186353 9.657608
O 4.236004 -0.753774 2.958172
H 4.542812 -0.852274 3.859504
H 3.514611 -0.127415 3.017318
O 6.091033 8.713737 10.494407
H 6.808971 9.214097 10.106547
H 5.640356 9.340222 11.060657
O 7.268857 8.267388 0.034705
H 7.337808 8.563662 0.942284
H 6.390037 7.893528 -0.029593
O -1.885329 -4.361235 10.532090
H -2.093351 -3.429443 10.463361
H -0.931932 -4.400501 10.456430
O 15.098231 11.617688 -8.319169
H 14.684615 11.650409 -9.181772
H 16.037413 11.605964 -8.503644
O -2.473965 1.064577 13.266757
H -1.902627 1.830439 13.323855
H -2.057233 0.502441 12.613633
O -3.022816 -0.786042 5.145556
H -2.397970 -1.507538 5.217959
H -3.853197 -1.156824 5.444254
O -1.413829 11.856358 4.382019
H -1.869097 12.248757 3.637046
H -0.938287 11.114182 4.008835
O 7.555025 -2.751452 -4.025144
H 7.812014 -3.604391 -4.375406
H 6.687553 -2.898327 -3.648113
O -0.129558 8.133556 6.694531
H -0.317321 7.200317 6.794748
H 0.609809 8.293919 7.280919
O 10.179328 4.204735 3.645907
H 10.083907 3.779706 4.498244
H 9.758578 5.057607 3.754587
O 0.519580 13.854531 3.207844
H 0.527303 14.206976 4.097762
H -0.403024 13.671595 3.030170
O 6.543723 9.053874 6.302307
H 5.927798 8.706921 6.947670
H 6.490117 10.003935 6.405959
O 9.584661 20.622899 7.667977
H 9.684963 21.362218 7.068329
H 8.672694 20.668795 7.955104
O 2.488057 -0.754313 8.646161
H 2.597060 0.148274 8.346684
H 3.012845 -1.274178 8.037417
O 4.935833 6.452787 15.061293
H 5.227893 5.782274 14.443761
H 4.038737 6.201848 15.281473
O 2.878078 8.806895 -2.732761
H 2.610418 7.889204 -2.782089
H 2.858446 9.012703 -1.798154
O 9.556660 12.893702 6.268679
H 9.802240 12.037299 6.618673
H 8.823366 12.711503 5.681044
O 16.459687 6.096465 9.475514
H 16.535791 5.893032 10.407745
H 15.757875 5.526069 9.161920
O -0.194408 9.064743 3.924795
H 0.130327 8.813648 4.789509
H -1.038307 8.619782 3.846850
O -1.280299 4.741061 12.219668
H -1.972086 4.136934 11.950052
H -0.936236 4.365607 13.030153
O 4.528468 11.620971 8.910311
H 5.160267 11.150831 8.366223
H 3.683056 11.457149 8.492372
O 5.303917 4.167350 -4.112678
H 4.557559 3.586616 -4.260767
H 5.301403 4.325405 -3.168621
O 10.699566 4.052113 -1.623427
H 10.774078 3.195441 -1.202958
H 9.773333 4.127011 -1.853021
O 12.943563 3.148777 6.970729
H 12.871207 2.234740 7.245563
H 12.056899 3.389558 6.702246
O 16.249563 11.518591 -1.341971
H 16.637621 10.980293 -0.652132
H 15.355895 11.187361 -1.430719
O 19.995730 -0.703441 20.704476
H 20.130654 -1.643937 20.588307
H 20.864317 -0.319696 20.583945
O 4.144938 3.674187 4.189378
H 4.537805 4.304324 3.585379
H 4.888343 3.297324 4.660074
O -2.378490 7.405179 3.732317
H -2.881729 7.315887 4.541643
H -1.562674 6.934807 3.903860
O 6.472125 2.874810 0.695210
H 7.129728 3.434970 1.107534
H 6.727811 1.985167 0.938917
O -0.185070 5.196049 6.515821
H -0.730149 4.461350 6.797493
H 0.712051 4.869352 6.584206
Na 10.452411 2.479226 17.189844
