333
Lattice="14.951328 0.0 0.0 0.0 14.951328 0.0 0.0 0.0 14.951328" Properties=species:S:1:pos:R:3 pbc="T T T" ion=oh T=300.0 t_ps=12.0
O 7.956801 11.933676 3.941636
H 7.790845 11.587891 3.061578
O 4.177392 4.010067 8.364831
H 4.657033 3.196104 8.518588
H 3.877471 4.279543 9.232968
O 6.694979 5.648913 8.760417
H 5.811490 5.308333 8.620115
H 6.790516 6.343859 8.109145
O 8.052975 7.231426 11.853937
H 8.429510 6.989709 11.007753
H 8.460178 8.071149 12.066735
O -3.622688 9.289334 0.836151
H -2.816616 9.484681 1.313980
H -3.859297 10.116419 0.416417
O 6.816144 7.487556 6.580432
H 6.261400 6.938395 6.026434
H 6.727327 8.366746 6.212506
O 9.623172 9.399363 9.055900
H 9.969403 9.448501 8.164866
H 9.813849 8.504922 9.338474
O 12.193276 -1.697730 13.225281
H 13.004749 -1.935717 13.673729
H 12.353592 -0.815113 12.891337
O 9.435814 7.397008 15.053751
H 10.188726 7.896021 15.370518
H 8.788655 8.062089 14.819049
O 28.143514 11.542252 -6.469526
H 27.680559 11.684330 -5.643864
H 27.688037 12.100984 -7.099281
O 16.821594 6.499833 4.717318
H 16.477645 6.085432 5.508647
H 17.179020 5.775820 4.203232
O 7.587143 9.833087 5.531250
H 8.459069 9.665487 5.888865
H 7.711301 10.567935 4.930572
O 15.467930 13.377863 11.086183
H 15.618114 13.145311 10.169888
H 16.341034 13.383870 11.478465
O 12.144264 13.334777 16.854831
H 12.438817 13.163682 15.960294
H 11.189309 13.356518 16.793024
O 14.578903 2.828995 13.967847
H 14.085112 3.532288 14.389489
H 14.810701 2.236406 14.682928
O 16.447422 10.190162 -4.239251
H 16.548732 10.815115 -4.957166
H 17.340528 9.913731 -4.033878
O 5.724397 6.837537 2.442263
H 6.132089 7.703015 2.473347
H 5.452163 6.733099 1.530554
O 14.262492 11.988821 -0.002141
H 14.948647 11.648480 -0.576240
H 14.097325 11.280707 0.620375
O 7.583925 0.856982 9.649549
H 8.279285 0.279463 9.964475
H 7.871361 1.735812 9.897079
O 0.805441 12.134499 8.690342
H -0.126991 11.936743 8.778066
H 0.996122 11.986166 7.764129
O 9.317901 14.193845 11.363765
H 8.715698 13.451335 11.316200
H 9.565583 14.243198 12.287047
O -4.343479 9.823630 6.595575
H -3.593562 9.324222 6.918758
H -4.292250 9.744129 5.643059
O 6.137739 -0.251896 14.085328
H 5.755623 -1.083349 14.366229
H 5.412377 0.219216 13.675286
O 7.581993 18.538598 10.498316
H 6.833087 18.434511 11.085290
H 7.215102 18.938287 9.709728
O 4.671483 6.374889 4.941637
H 4.790229 6.687315 4.044686
H 3.733294 6.469182 5.106383
O 15.728118 16.808914 1.284722
H 16.448108 16.286142 1.637647
H 15.265089 17.132346 2.057526
O 17.027000 9.316480 4.327491
H 17.388712 8.452463 4.524646
H 16.249325 9.383215 4.881567
O -4.497582 16.816158 14.167315
H -3.742554 16.593454 13.622734
H -5.011281 16.009446 14.206824
O 10.259624 2.661745 5.328850
H 9.919859 3.060399 6.130016
H 10.174866 1.719572 5.474997
O 5.455705 11.456353 4.069882
H 6.367877 11.664264 4.272237
H 5.215321 12.076287 3.381312
O 7.345909 10.868572 9.204281
H 6.732115 10.215913 8.867346
H 8.198664 10.434942 9.172562
O 17.022531 12.232646 18.402544
H 17.840649 12.615358 18.085612
H 17.239184 11.317668 18.581731
O 15.116367 8.072199 17.171909
H 15.846974 8.098682 17.789763
H 15.504630 8.312682 16.330688
O -5.609644 6.600110 9.476157
H -6.388066 6.204158 9.084348
H -4.923876 5.941536 9.365546
O 18.762192 10.665822 21.250749
H 19.031876 10.882222 20.358183
H 17.806364 10.712978 21.230748
O 10.770317 0.141815 9.014138
H 11.504382 -0.472438 9.022717
H 10.155808 -0.209582 9.658444
O 3.177809 5.743550 10.442641
H 3.906567 6.263499 10.781458
H 2.517599 6.389980 10.192674
O 2.413768 17.997282 13.870162
H 1.457484 17.978171 13.907428
H 2.663024 18.704675 14.464887
O 12.808944 4.614489 15.147407
H 12.415225 5.354420 14.685108
H 13.337718 5.016140 15.836832
O 2.870906 -1.546393 -2.035717
H 3.699323 -1.298201 -2.446031
H 2.787691 -0.956096 -1.286813
O 2.067745 4.661962 2.753032
H 1.324964 4.151978 3.076180
H 2.666350 4.009807 2.388893
O -4.253635 7.156362 3.597923
H -4.426784 8.092349 3.698811
H -3.970254 6.869776 4.466137
O 12.839950 8.904640 7.463111
H 13.335122 8.297350 8.012871
H 13.057202 9.771187 7.806810
O 23.287237 5.864774 4.905123
H 22.744350 5.829971 4.117535
H 23.271036 6.785231 5.167286
O -1.320771 -4.637176 2.022188
H -1.459441 -4.178597 2.850866
H -0.793030 -5.400796 2.255869
O 4.304054 13.132096 16.889817
H 4.874536 12.739451 16.229051
H 3.895574 13.874074 16.443897
O 1.513060 15.385946 7.677047
H 0.900208 15.750664 8.315502
H 2.070951 16.123887 7.431217
O 6.817466 14.381554 3.904330
H 7.363866 14.961614 4.434623
H 7.266698 13.536782 3.932320
O 0.862679 -7.189308 10.202984
H 0.547022 -7.509041 11.048184
H 0.999832 -6.251536 10.337171
O 17.503383 15.634837 3.316558
H 17.874394 16.458628 3.000406
H 18.076184 15.374911 4.038063
O 4.430149 10.124251 13.945328
H 3.517059 10.404723 14.007237
H 4.588441 10.027831 13.006244
O -0.178743 0.726669 9.680512
H -0.989098 1.224625 9.788198
H -0.163953 0.127946 10.427201
O 9.311822 13.364129 2.130644
H 9.094834 14.258177 2.394890
H 8.822334 12.808985 2.737644
O 17.474492 3.314323 6.364625
H 18.120327 3.199796 5.667479
H 17.990195 3.567271 7.130327
O 9.145164 16.530892 17.017273
H 8.207847 16.399359 16.874561
H 9.237919 16.584324 17.968469
O 14.595147 7.301557 12.765930
H 13.822322 7.726264 12.393643
H 14.423485 6.364716 12.670568
O 4.829111 14.753627 11.561544
H 5.676443 14.339117 11.398934
H 4.351258 14.654007 10.738158
O 13.848852 5.734007 17.319415
H 12.981748 6.055456 17.566466
H 14.385360 6.523281 17.245671
O 5.116203 16.184783 8.201257
H 4.418004 15.530062 8.191777
H 5.774604 15.824914 8.795593
O 5.846263 -2.825446 15.103577
H 6.765585 -2.972500 14.881193
H 5.405860 -3.637515 14.852936
O 12.160821 7.644244 11.344127
H 12.376384 7.014896 10.655879
H 11.736481 7.120609 12.023814
O 9.245384 15.247079 6.497774
H 9.618171 15.269620 7.379111
H 9.276784 14.323721 6.247463
O 14.310668 0.459410 21.053993
H 15.196075 0.407135 21.413930
H 13.761473 0.019391 21.702838
O 10.744124 11.094588 13.951919
H 10.825558 10.455642 13.243859
H 11.037079 11.919809 13.565370
O 12.418804 16.088846 16.628471
H 11.906215 15.300486 16.807279
H 13.324130 15.830944 16.801975
O 4.291056 17.610883 2.268612
H 4.990164 17.076350 1.892111
H 4.680604 17.997876 3.052653
O 6.760321 19.139679 13.790838
H 6.393159 18.456294 13.230117
H 7.048800 19.820023 13.182444
O 4.162551 9.830875 -3.882534
H 4.411711 8.908320 -3.937712
H 4.538644 10.228419 -4.667864
O -3.802696 6.142065 -1.586948
H -4.432528 6.723903 -1.161497
H -4.336693 5.437381 -1.953691
O -0.285778 3.323225 3.232861
H -0.819251 2.873759 3.888313
H -0.695368 4.183234 3.138765
O 12.295613 1.941704 10.354669
H 11.785997 1.367085 9.783409
H 11.650208 2.540678 10.730053
O 6.897256 2.536377 6.861291
H 6.204999 1.973591 7.208111
H 7.618887 1.937893 6.668166
O 7.380019 9.182496 2.607224
H 6.754083 9.502389 3.256920
H 8.237967 9.378193 2.983866
O 10.084860 -4.844221 3.564287
H 10.474465 -4.678052 2.705900
H 9.370264 -4.210784 3.630181
O 10.037846 9.272544 -3.118616
H 9.682027 9.426816 -3.993730
H 10.752082 8.650317 -3.256216
O 8.079438 11.308421 13.647663
H 9.034231 11.269655 13.591996
H 7.819239 10.429514 13.923438
O 9.256112 -0.589231 14.125293
H 8.316234 -0.424511 14.200973
H 9.484905 -1.049374 14.932854
O 9.347935 4.501143 15.155446
H 9.292514 5.453001 15.071024
H 8.491543 4.184466 14.868148
O 5.205022 3.173029 11.825888
H 4.394599 3.571706 12.142910
H 5.016874 2.234856 11.800127
O 12.945132 -2.888566 11.118191
H 13.867735 -2.668539 11.247121
H 12.514876 -2.600151 11.923131
O 3.358570 0.646852 -0.207516
H 2.524044 0.398571 0.190170
H 3.136621 1.360888 -0.805114
O 5.313569 7.421698 11.755129
H 6.267018 7.465241 11.682536
H 5.142814 7.454319 12.696410
O 7.321730 9.093178 -0.303384
H 7.485301 9.295974 0.617675
H 6.600795 8.463743 -0.286169
O 1.612314 -4.116530 13.556688
H 2.199099 -3.360732 13.582866
H 1.325123 -4.165920 12.644924
O 15.921546 11.888213 -9.046884
H 15.178441 11.325089 -9.263492
H 16.333502 12.076852 -9.890056
O -2.218972 1.171296 12.865014
H -1.587116 1.746663 13.296224
H -2.281086 1.509693 11.971783
O -2.791279 -1.854544 6.564899
H -2.084748 -2.141784 5.986505
H -3.552069 -1.769157 5.990321
O -1.558816 12.195692 4.124978
H -2.199055 12.567426 3.518234
H -0.825935 12.811163 4.107324
O 7.395433 -2.442431 -3.720934
H 7.295155 -3.003627 -4.489851
H 7.606202 -3.046392 -3.008867
O -0.855090 6.419586 8.409016
H -0.458694 5.912734 7.700352
H -0.131013 6.927673 8.774792
O 10.885690 4.051485 3.092517
H 10.681377 3.714430 3.964802
H 10.732563 4.994118 3.157539
O -0.093133 14.836694 3.575665
H 0.839917 14.938090 3.387598
H -0.178097 15.068385 4.500507
O 5.247294 9.331256 8.310034
H 4.754791 9.626181 7.544076
H 5.624096 8.492319 8.044636
O 9.069836 19.265074 6.975315
H 8.762083 19.936571 6.366535
H 8.300420 18.720169 7.140570
O 3.337835 -0.647005 9.305497
H 2.640672 -0.460130 8.676789
H 3.846548 -1.348201 8.898352
O 5.242997 6.777458 14.617504
H 5.689592 5.930853 14.624169
H 4.325559 6.566197 14.790444
O 1.177928 8.382279 -0.308350
H 0.644418 8.030962 -1.021214
H 1.220286 9.322771 -0.481306
O 9.674628 12.765914 5.576034
H 9.708435 12.052236 6.213021
H 9.031085 12.479025 4.928131
O 11.763660 5.250261 9.254989
H 12.545197 5.590216 8.819259
H 12.097049 4.598483 9.871649
O -0.573652 9.369830 5.103858
H -1.045970 8.908150 5.796677
H -0.722890 8.842446 4.319112
O -0.287985 4.602525 11.043944
H 0.632950 4.616960 10.783362
H -0.346790 3.887932 11.678082
O 4.962651 13.057879 7.379769
H 5.670543 12.749084 7.945248
H 4.588889 12.259993 7.005721
O 2.694224 5.941908 0.152025
H 2.251347 6.785543 0.060531
H 2.462403 5.643288 1.031409
O 10.263261 3.626530 -3.343760
H 10.316732 3.172989 -2.502526
H 9.394118 3.407487 -3.679679
O 13.148813 3.084457 5.515058
H 13.410673 2.184628 5.709914
H 12.195190 3.046343 5.441692
O 16.405715 13.781461 0.968926
H 16.585305 13.468088 1.855367
H 15.631024 13.291350 0.693468
O 19.461742 -0.033801 20.085007
H 19.607752 -0.735271 20.719713
H 20.241324 -0.046475 19.529737
O 5.170437 3.565400 4.961373
H 5.140498 4.517790 5.052409
H 5.859376 3.288131 5.565290
O -3.860568 6.648097 6.542488
H -4.115431 6.048546 7.243783
H -3.152329 7.170511 6.918937
O 6.529338 1.149113 1.574650
H 6.331310 0.457839 2.206438
H 6.274764 0.781029 0.728519
O 0.494645 5.016286 6.458343
H -0.230372 4.514848 6.085325
H 1.153297 4.357777 6.679196
Na 11.060011 3.038576 15.999809
