22
liquid_h3o_09_0: target O0-H1...O3, R=2.813 angle=158.1, 0 shell + 4 env waters, counter-ion 0
O   0.00000000  0.00000000  0.00000000
H   0.93733700  0.13315400 -0.14107500
H  -0.09949800 -0.01626300  0.95187600
O   2.77577600 -0.31834400 -0.32696200
H   2.99846800 -0.88867600  0.40881100
H   2.90042600  0.56862900  0.01063500
O  -1.62832700 -1.42716800 -1.58839200
H  -1.26890000 -0.83150900 -2.27861100
H  -1.24223300 -1.08223800 -0.75631300
H  -1.37012800 -2.35466400 -1.77137700
O  -0.49515300 -0.27001400  2.58474800
H  -0.14802300  0.57948400  2.85693400
H  -1.44566400 -0.16655400  2.63010800
O   4.08193400  0.46476800 -2.71780900
H   4.77116500  1.01655700 -2.34804900
H   3.57027700  0.18012400 -1.96056600
O   2.11504200  2.13201400  1.40037900
H   2.21879800  2.73793700  0.66667400
H   1.81513400  2.68128300  2.12466600
O   4.04080700 -2.78272000  1.07754000
H   3.35242300 -3.23332900  1.56673400
H   4.82382300 -2.88102300  1.61925400
