31
liquid_h3o_04_0: target O0-H1...O3, R=2.673 angle=166.6, 2 shell + 5 env waters, counter-ion 0
O   0.00000000  0.00000000  0.00000000
H   0.88446600 -0.32467900 -0.16892500
H  -0.44268100 -0.72658300  0.43856800
O   2.30495400 -1.27446900 -0.45338700
H   2.48258600 -2.00963300 -1.04008300
H   3.01791800 -0.65761700 -0.61893700
O  -0.42054400  1.98735100 -1.73440800
H  -0.41347300  1.14746700 -1.22948800
H  -0.83745700  1.89242600 -2.61620800
H   0.49559600  2.27050400 -1.93667700
O   0.45912100 -0.33021000 -3.13142000
H   1.24927200 -0.13691900 -3.63593100
H  -0.24738700 -0.31576300 -3.77707400
O  -1.41592900  1.95213900 -4.06867400
H  -2.03138200  2.60161500 -4.40871700
H  -1.58254300  1.16727200 -4.59064800
O   3.52168200 -2.15377800  1.68723200
H   4.44952300 -2.01659600  1.49612200
H   3.06133400 -1.65614000  1.01145900
O   3.94135400  0.81118600 -0.54324400
H   4.68368100  0.82582200 -1.14737000
H   3.22676700  1.22051900 -1.03114100
O  -2.30397100 -1.51756700  0.10604000
H  -3.00566800 -1.71589900  0.72613500
H  -2.75299600 -1.37679200 -0.72750100
O   3.52129800 -3.85751800 -1.75247800
H   4.30543200 -3.56202800 -1.28982100
H   3.01063000 -4.32009800 -1.08804600
O  -0.40776400 -2.76790800 -1.53224800
H  -0.08025300 -1.94989000 -1.90616800
H  -1.07120400 -2.49368800 -0.89909500
