28
liquid_h3o_06_0: target O0-H2...O3, R=2.922 angle=156.6, 1 shell + 5 env waters, counter-ion 0
O   0.00000000  0.00000000  0.00000000
H   0.75075400 -0.01780300  0.59353500
H  -0.50791900  0.76210500  0.27829100
O  -0.84025800  2.53986400  1.17399200
H  -0.67264000  2.59512800  2.11478000
H  -0.68566700  3.42725200  0.85014800
O  -1.35701300 -1.91014300 -1.13063000
H  -0.92872100 -1.20378400 -0.60336200
H  -1.98695600 -2.39905800 -0.56093700
H  -0.64740000 -2.49679300 -1.46633800
O  -2.99031500 -3.46113200  0.31352700
H  -3.75745200 -3.43167600  0.88524800
H  -2.93141900 -4.37589200  0.03788700
O   2.14788800  0.15514700  1.50196500
H   2.74327900 -0.14730800  0.81620800
H   2.26989100 -0.46839400  2.21788700
O  -2.52745100  1.36514400 -0.47748700
H  -3.47254300  1.48965700 -0.56426800
H  -2.21516600  2.17367100 -0.07129400
O   0.81191000  1.21315500 -2.35373200
H   0.63779600  0.93838400 -1.45350100
H   1.25643800  2.05627900 -2.26558900
O  -1.30636900  3.88998900  3.57779400
H  -1.55965100  4.20135500  4.44677700
H  -0.41457200  4.21593100  3.45658700
O  -0.91059200  5.21499200  0.07937800
H  -1.02887300  5.68257100  0.90618700
H  -0.19399700  5.67605100 -0.35668100
