22
liquid_h3o_02_0: target O0-H1...O3, R=2.920 angle=158.9, 1 shell + 3 env waters, counter-ion 0
O   0.00000000  0.00000000  0.00000000
H   0.05735600  0.16866500 -0.94047600
H  -0.93246900  0.07842600  0.20145100
O  -0.52070100  0.30341700 -2.85672900
H  -0.82017300  0.05685000 -3.73180200
H  -0.03981100  1.12041300 -2.98899500
O   1.76615800 -1.84174800  0.98610300
H   1.81373400 -2.81764000  0.91004900
H   1.22040500 -1.41466600  0.29317000
H   2.63125000 -1.38131500  0.98315600
O   1.96480600 -4.61628800  0.92216000
H   1.29140100 -5.16557100  1.32346700
H   2.74559200 -5.16965700  0.90250900
O  -2.73471000 -0.22548400 -1.35974400
H  -3.21933800 -1.02949700 -1.54664400
H  -2.21282000 -0.07129600 -2.14720100
O   0.00384700  3.12915600 -2.88888800
H  -0.94245900  2.98760200 -2.91533800
H   0.14919000  3.63039600 -2.08647600
O   0.67547100 -2.26116600 -1.84160000
H   0.00568600 -1.95983000 -2.45545500
H   1.08018600 -3.01129200 -2.27720100
