25
liquid_h3o_03_0: target O0-H2...O3, R=2.888 angle=140.1, 1 shell + 4 env waters, counter-ion 0
O   0.00000000  0.00000000  0.00000000
H  -0.37459300  0.83705300 -0.27432500
H   0.63995400 -0.21085800 -0.67987400
O   2.46353700 -1.19999900 -0.91114400
H   2.54806300 -2.10085200 -1.22347600
H   3.36242500 -0.92122700 -0.73645100
O   1.46263700 -0.65460700  2.12236500
H   1.57223700 -1.59548700  1.87110500
H   0.91054000 -0.17123200  1.47279700
H   2.31023100 -0.16451100  2.16464800
O   1.66951400 -3.16467800  1.62293300
H   1.36929400 -3.89145400  2.16873100
H   2.59914900 -3.34112800  1.47844700
O  -1.63771800  1.98664900 -0.78674000
H  -1.50468000  1.47183700 -1.58266800
H  -1.15963200  2.80071100 -0.94475600
O   2.71380900 -3.43530100 -2.41765200
H   2.32214100 -3.60859100 -3.27368900
H   2.13401700 -3.87417400 -1.79518600
O  -1.63599000 -1.94753000 -1.07258100
H  -1.56129800 -1.74202900 -2.00447300
H  -0.93513100 -1.44372700 -0.65880400
O   5.06115500 -0.05134000 -0.56150300
H   4.85576900  0.55772200  0.14778600
H   5.92327000 -0.40067000 -0.33576400
