34
liquid_h3o_01_0: target O0-H2...O3, R=2.892 angle=168.0, 3 shell + 5 env waters, counter-ion 0
O   0.00000000  0.00000000  0.00000000
H  -0.07523200 -0.77530700 -0.55630100
H  -0.78086600  0.51598800 -0.20058900
O  -2.37178700  1.64143300 -0.20937600
H  -2.65775200  1.52374100 -1.11524800
H  -2.02022800  2.53132600 -0.18238600
O   2.00412200 -0.40416100  1.71363900
H   2.03943000 -1.35358900  1.95393000
H   1.31325300 -0.22166400  1.04297200
H   2.87026100 -0.11268600  1.35973800
O   1.34465000 -3.29397100  1.95630200
H   0.39103000 -3.33143600  2.03003500
H   1.59599600 -4.16495700  1.64899200
O   1.53329000 -0.80499000  4.58312200
H   1.39747300 -0.91610900  5.52409900
H   2.25641500 -1.39609700  4.37356600
O   0.18325200  1.10602100  3.23380900
H  -0.72478700  0.95457700  3.49603500
H   0.66819200  0.37355600  3.61402200
O  -1.29616900  4.02911900 -0.91283400
H  -0.40878700  4.17706100 -0.58588100
H  -1.18946100  3.38669400 -1.61435700
O  -4.33279200  1.65443400  1.71097600
H  -3.88032000  2.18609900  2.36583000
H  -3.84181900  1.80048900  0.90236900
O  -0.10981700 -2.55963500 -1.40386100
H   0.80607700 -2.69983500 -1.64409600
H  -0.57465900 -2.52527700 -2.23990700
O  -3.57642100  0.83749800 -2.76962900
H  -3.95286200  1.08998300 -3.61270400
H  -3.18190300 -0.01973900 -2.93003800
O  -0.48102300  2.05228900 -2.55203700
H   0.43962900  2.04194600 -2.29026600
H  -0.58274100  1.27584800 -3.10251500
