29
liquid_h3o_07_0: target O0-H1...O3, R=2.769 angle=171.7, 2 shell + 4 env waters, counter-ion 1
O   0.00000000  0.00000000  0.00000000
H  -0.80857800  0.13144000  0.49513300
H   0.02799000 -0.94189000 -0.16820000
O  -2.44538300  0.46905600  1.21065700
H  -2.77471700 -0.30899600  1.66055200
H  -3.07002100  0.61827900  0.50087500
O   1.68991100  2.15919900 -0.01970400
H   1.97209900  2.72470600  0.72927900
H   0.97618400  1.54679800  0.25591100
H   2.41935200  1.76356000 -0.54103800
O   0.49496800  1.54883800  2.59800700
H   0.54981000  2.05370000  3.40938700
H   0.50465800  0.63504500  2.88282100
O   2.62210200  3.60022400  2.00573100
H   3.43111900  3.98222000  1.66543400
H   2.13747200  4.34406100  2.36360400
O  -4.00353800  0.91476600 -0.83970900
H  -4.74546400  0.34935400 -0.62503200
H  -3.57091900  0.47539200 -1.57184500
O  -3.11363100  3.12724800  1.80152200
H  -2.92218100  2.21390900  1.58846800
H  -3.18274500  3.56248600  0.95180300
O   0.80840500 -2.74287000 -0.11985900
H   1.76046500 -2.64400600 -0.12616400
H   0.63778600 -3.37906600  0.57467400
O  -3.27836700 -2.31218400  2.29700100
H  -2.66816500 -2.74147400  2.89666500
H  -3.84458300 -1.78916000  2.86451900
Cl  3.91869000  0.69370500 -1.31534900
