31
liquid_h3o_08_0: target O0-H1...O3, R=2.956 angle=157.4, 1 shell + 6 env waters, counter-ion 0
O   0.00000000  0.00000000  0.00000000
H  -0.28717900  0.90268100 -0.13757100
H  -0.64052300 -0.36523400  0.61038200
O  -0.94305400  2.77722600  0.36744900
H  -0.42492900  3.53714300  0.10229700
H  -1.34340300  3.03737400  1.19707200
O   2.70256600  0.02045500 -1.17550000
H   3.33659100  0.70351200 -0.87242800
H   1.93156300  0.07561000 -0.57308100
H   3.13005200 -0.84725400 -1.33274400
O   4.20820600  1.90794100 -0.01257000
H   5.07747000  2.21630400  0.24340800
H   3.64789700  2.68040000  0.06221200
O  -1.78977500 -1.30709600  1.60443900
H  -2.39567900 -2.04780300  1.62603400
H  -1.00377500 -1.62700900  2.04726200
O  -2.92774200  3.61884900 -1.58161900
H  -2.33496500  3.13075800 -1.01011800
H  -2.85529400  4.52576800 -1.28416100
O   1.43188400  2.14941800  1.97033200
H   1.96033500  2.83970300  1.56973600
H   0.58260200  2.21326300  1.53343900
O  -0.34513700  5.59923800  1.57869300
H  -0.66314100  5.00153400  2.25534300
H   0.11442900  6.28598900  2.06181100
O  -1.51735500  3.82422500  3.27710400
H  -2.43067000  3.69211200  3.02287400
H  -1.55548400  4.02859300  4.21145400
O   0.26212500  5.03337800 -1.49825000
H  -0.49169300  5.62058600 -1.44188600
H   0.06484000  4.46001000 -2.23889800
