31
liquid_h3o_05_0: target O0-H2...O3, R=2.934 angle=169.5, 1 shell + 6 env waters, counter-ion 0
O   0.00000000  0.00000000  0.00000000
H  -0.55945300  0.65108000 -0.42348500
H  -0.37192300 -0.84238400 -0.26133300
O  -1.46592500 -2.43188200 -0.73770300
H  -1.91768000 -2.06250700  0.02105400
H  -0.55759100 -2.52966000 -0.45204400
O   1.21987200  1.33862600  2.02547400
H   0.94547900  1.06309300  2.92502300
H   0.91680300  0.66882500  1.37746400
H   2.19590000  1.30531800  1.94385000
O   0.51663000  0.26577500  4.35058000
H   0.95801100 -0.58350000  4.33851200
H  -0.03297300  0.23949300  5.13382900
O   1.10901600 -2.82071000 -0.01031300
H   1.54339200 -3.65471200  0.16854400
H   1.66966000 -2.39193300 -0.65688900
O  -1.12541800 -1.44855900 -3.32003000
H  -2.03127200 -1.22491100 -3.53366900
H  -1.17555300 -1.85013400 -2.45258800
O  -3.61506900 -4.08025800 -1.40472600
H  -2.87730600 -3.49174700 -1.24474900
H  -4.38900100 -3.55717300 -1.19581600
O  -0.74484700  2.19290100 -1.72705500
H  -1.30694200  1.99066800 -2.47497400
H   0.04582000  1.67371200 -1.87375200
O  -3.57080100 -1.10744000  0.92243500
H  -3.43650000 -1.29847100  1.85071400
H  -3.35028300 -0.18020700  0.83388200
O  -1.86405500 -3.43275800  2.22236800
H  -1.75549300 -3.50066700  3.17096400
H  -2.30754600 -4.24351200  1.97291800
