25
liquid_h3o_00_0: target O0-H2...O3, R=2.751 angle=164.6, 1 shell + 4 env waters, counter-ion 0
O   0.00000000  0.00000000  0.00000000
H   0.21419100 -0.61367000 -0.70268300
H  -0.12964900  0.83785300 -0.44432500
O  -0.81492700  2.39365600 -1.08358700
H  -1.17305500  3.22675700 -0.77712500
H  -0.80637800  2.47249800 -2.03749600
O   2.17671100 -0.16651700  1.53060100
H   2.22374700 -1.13340900  1.68327000
H   1.50897900  0.19742800  0.91247600
H   3.07439200  0.19463500  1.37523200
O   2.33613900 -2.80691300  2.14494000
H   1.87963600 -3.18154400  2.89825900
H   2.08897700 -3.36904400  1.41067200
O   0.89575500 -1.42392000 -1.97382200
H   1.57847500 -0.89357200 -2.38474400
H   0.89214700 -2.24000200 -2.47405100
O  -1.70696400  5.18473200 -0.68546900
H  -2.11457700  5.28861100  0.17435300
H  -2.44307800  5.12564500 -1.29446500
O  -3.06560200  0.27503900  0.12595100
H  -2.11441000  0.29933800  0.02166500
H  -3.24669500  0.90480200  0.82368800
O  -1.88416700  2.55777600 -3.97377900
H  -1.78222100  1.60962900 -4.05657700
H  -1.90538600  2.87656800 -4.87608300
