335
Lattice="15.208256 0.0 0.0 0.0 15.208256 0.0 0.0 0.0 15.208256" Properties=species:S:1:pos:R:3 pbc="T T T" ion=h3o T=300.0 t_ps=20.0
O 7.902319 6.315815 9.181426
H 7.909390 5.475931 9.686346
H 7.485406 6.220890 8.299626
H 8.818459 6.598968 8.979157
O 12.087633 -0.012004 14.458227
H 12.761992 0.075301 15.131911
H 12.176245 0.778688 13.926074
O 12.310145 12.567524 13.066493
H 13.054395 12.320380 13.615350
H 12.116341 13.470684 13.317440
O 0.879502 15.911475 7.719450
H 0.999173 16.828789 7.473596
H 0.902700 15.435530 6.889288
O 8.322863 19.536720 10.915834
H 9.207329 19.212041 10.746909
H 7.880182 18.810137 11.354402
O 24.742194 -1.701106 7.176280
H 24.389582 -2.420477 6.652446
H 24.003248 -1.407703 7.709295
O 8.135977 11.092174 -0.374491
H 7.547832 11.844823 -0.312551
H 8.598900 11.216888 -1.202971
O 8.067731 -6.531660 3.499939
H 8.890441 -6.179264 3.160532
H 7.471702 -6.513190 2.751180
O 27.052417 0.470946 -6.044900
H 27.836551 0.766436 -5.582243
H 26.541749 0.008366 -5.380468
O 0.162978 9.954526 0.966492
H -0.029405 10.803724 0.568894
H -0.364291 9.938534 1.765219
O 18.481036 7.464289 8.569718
H 19.017200 7.900907 7.907808
H 19.011543 7.493732 9.365914
O 4.622088 1.441257 13.560755
H 3.946537 1.867335 13.033194
H 4.859094 2.093810 14.219720
O 8.781984 3.998254 7.784414
H 9.572135 4.191545 7.279903
H 8.075476 4.012701 7.138760
O 6.906934 6.280603 6.847160
H 6.291481 6.930079 6.507117
H 6.740320 5.495736 6.325186
O 7.915099 16.768812 -5.824670
H 8.242610 17.586830 -6.198590
H 7.251659 17.043032 -5.191517
O 16.505795 1.994619 4.017245
H 15.621069 2.102669 3.668223
H 16.396532 1.418997 4.774181
O -0.556821 12.120794 -1.092406
H -0.634330 12.815124 -0.438089
H 0.385950 11.986624 -1.189431
O 1.954521 -2.887639 16.901595
H 2.426116 -2.097437 17.165053
H 2.168180 -2.996912 15.974966
O 14.357421 2.033576 10.128192
H 14.752853 2.903381 10.070706
H 15.094528 1.445167 10.291535
O 19.663914 18.568814 0.258464
H 19.184653 18.990355 -0.454869
H 19.067709 18.611201 1.006110
O 8.738773 21.384732 3.649646
H 8.453974 22.298530 3.639924
H 7.925530 20.879999 3.660228
O 11.177270 20.186762 6.786609
H 11.109837 21.051367 7.191753
H 12.107264 19.967258 6.842838
O 1.471863 -8.754779 12.299092
H 0.971598 -7.949023 12.428415
H 1.368308 -9.235931 13.120068
O 9.374066 10.254418 9.756894
H 9.982743 10.849228 9.318779
H 9.789639 9.394635 9.691289
O 3.116239 12.021935 8.649068
H 2.433017 12.099508 7.983169
H 3.020379 12.809786 9.184170
O 5.151879 8.325149 -8.832011
H 5.338693 8.416351 -9.766363
H 5.413114 9.163967 -8.452047
O 20.171568 7.994634 10.486065
H 20.561014 7.590126 11.261267
H 20.616136 8.838616 10.406791
O -0.755828 14.126011 16.031370
H -1.311815 14.608734 16.642999
H 0.034315 13.924857 16.532810
O 20.141785 8.508633 -0.417959
H 21.047167 8.642820 -0.137764
H 19.650382 8.409583 0.397482
O 17.244807 11.969793 -0.985618
H 17.535978 11.131224 -1.343744
H 17.992212 12.555267 -1.107426
O 12.449291 16.838539 21.640149
H 11.569900 16.809961 21.263206
H 12.402807 16.260675 22.401821
O 1.492594 18.413425 22.028711
H 1.852841 19.007115 22.687488
H 0.581649 18.689939 21.928960
O 4.019526 13.833714 13.895203
H 4.003411 14.790778 13.894219
H 4.846374 13.608053 14.321385
O -2.894748 -10.413473 17.124622
H -3.564085 -10.494173 17.804112
H -2.891516 -9.482948 16.900248
O 2.056191 9.939092 10.212318
H 2.391060 10.649498 9.665128
H 2.750889 9.280663 10.202444
O 19.521208 1.614493 18.853430
H 19.478205 1.976936 19.738314
H 19.204176 2.319953 18.289472
O 10.443999 -0.749089 11.009998
H 10.694160 -0.328568 11.832684
H 9.537589 -1.024480 11.147159
O 5.319821 11.462408 12.092640
H 4.842907 12.291262 12.134897
H 4.740843 10.830397 12.518760
O 21.450082 -0.524839 4.125939
H 20.805034 -1.193366 4.356625
H 20.951689 0.131796 3.639455
O 12.071355 10.533425 15.226045
H 12.495686 9.842919 14.716754
H 11.265736 10.725112 14.745976
O 13.618456 17.823355 3.093908
H 13.192410 18.591595 2.713745
H 13.318914 17.091396 2.554702
O 2.193046 5.247007 4.374936
H 1.601148 5.997673 4.423811
H 2.008428 4.743786 5.167979
O -3.363711 17.382942 12.603066
H -2.435870 17.520124 12.411956
H -3.824059 17.880580 11.927293
O 10.533965 11.939123 4.675181
H 11.187447 12.090802 5.357960
H 11.035257 11.935540 3.859752
O 0.418541 4.510864 10.534413
H 0.906021 5.280509 10.828082
H -0.310788 4.867751 10.027518
O -1.214159 -0.242020 20.476138
H -1.588997 0.516024 20.924577
H -1.763800 -0.977267 20.747318
O 18.318966 14.202403 3.452330
H 18.492766 15.128274 3.282662
H 18.020185 14.176960 4.361348
O 11.989116 12.180955 17.444987
H 12.030847 11.660567 16.642686
H 12.408621 13.010112 17.215320
O 3.317189 -4.588817 3.444578
H 4.106387 -4.065535 3.584483
H 2.767675 -4.047508 2.877788
O 0.775210 7.352621 -9.967551
H 0.036743 7.131799 -10.535121
H 0.654998 8.280951 -9.767589
O -5.706235 -0.145279 15.384375
H -4.768895 -0.219068 15.204983
H -5.816135 -0.535867 16.251321
O 7.522609 14.242058 8.616556
H 7.618076 13.655932 9.367272
H 7.718569 15.111878 8.964759
O 25.260065 0.670732 5.873336
H 25.248104 -0.019788 6.536111
H 24.350896 0.964717 5.816623
O 20.276315 18.206631 8.437748
H 19.998623 17.291363 8.400298
H 19.459972 18.702838 8.497708
O 15.318273 23.550267 8.633249
H 15.455464 24.223428 9.299780
H 16.161997 23.479096 8.186822
O 13.349108 8.308651 14.391511
H 13.319296 7.510165 13.864478
H 14.282131 8.465951 14.536280
O 7.924299 13.505705 17.495262
H 8.022745 12.631702 17.872963
H 7.316312 13.954084 18.083089
O 20.447525 11.941156 4.830472
H 21.345980 11.706194 4.598514
H 20.333756 11.605857 5.719777
O -1.768166 17.504759 0.297361
H -2.681503 17.481144 0.582827
H -1.526393 18.429810 0.342725
O 6.400785 -1.637279 15.244882
H 6.619258 -0.879138 14.702920
H 6.935285 -1.531699 16.031899
O 9.102776 6.591305 15.963434
H 8.451217 6.040240 15.529811
H 9.071796 6.322344 16.881548
O -2.446800 15.074520 18.041907
H -1.881789 15.003567 18.811297
H -3.326660 14.894056 18.372832
O 12.329321 8.051553 4.346998
H 11.402229 8.271313 4.255139
H 12.589314 8.450211 5.177484
O 13.767757 11.278888 8.182082
H 13.587507 10.426378 7.785889
H 13.826498 11.099790 9.120541
O 7.341295 16.384949 21.269472
H 7.088070 16.049786 22.129573
H 6.897507 15.808714 20.647188
O -7.943356 4.989515 14.370394
H -7.405972 4.434426 13.805304
H -8.406338 4.375213 14.940053
O 0.400588 9.031873 -2.838985
H 0.663243 9.611937 -3.553667
H -0.534431 9.201243 -2.723725
O 15.083021 4.460295 0.343829
H 15.989192 4.472400 0.651952
H 15.141109 4.151749 -0.560415
O 9.735848 11.762713 12.803073
H 9.701806 11.285236 11.974164
H 10.514888 12.314141 12.730569
O 5.422168 -4.402054 7.441313
H 4.665179 -3.963752 7.830019
H 6.051056 -4.476551 8.159075
O 7.694672 11.323014 4.022355
H 7.596577 10.372217 3.971412
H 8.627071 11.459414 4.190459
O 11.804533 8.701364 -3.709586
H 11.420700 8.054095 -4.301150
H 12.104962 8.190893 -2.957659
O 12.264217 20.347906 10.372590
H 13.006544 20.362542 9.768464
H 11.549630 20.757239 9.884693
O 12.620739 -2.313264 6.272874
H 13.104612 -2.945140 6.804694
H 12.015072 -1.897221 6.886312
O 3.496383 9.805879 -2.133951
H 3.103162 9.188522 -2.750782
H 3.905020 9.252591 -1.468279
O 7.699952 13.250720 11.117777
H 7.631154 14.000717 11.708541
H 7.323062 12.521744 11.610503
O 6.302356 5.059397 3.651931
H 6.165923 4.390535 4.322931
H 5.465473 5.521047 3.599599
O 7.366010 -0.007062 13.300240
H 8.052671 -0.129880 13.955713
H 7.278438 0.942696 13.219479
O -0.161740 1.147611 13.484433
H -0.231383 0.416618 12.870404
H -0.769871 0.927142 14.189984
O 16.642881 -1.043095 5.588750
H 16.242575 -1.703414 6.154405
H 15.925138 -0.733232 5.036427
O 14.207643 5.745526 8.599758
H 14.362519 6.676344 8.439061
H 14.193185 5.350631 7.727932
O 1.003016 -4.955613 5.005376
H 0.283213 -4.858575 4.381919
H 1.792052 -4.794794 4.487891
O 5.734369 6.638692 -2.312436
H 5.670834 7.142848 -1.501251
H 6.220069 5.850930 -2.067980
O 5.145114 -0.204308 7.476154
H 5.864089 -0.629259 7.943834
H 4.587918 -0.926317 7.185521
O 3.515449 4.027621 -2.373428
H 2.561628 3.950529 -2.396099
H 3.683986 4.960705 -2.504509
O -2.071073 -9.113140 13.008259
H -2.717233 -9.600314 13.519505
H -2.075135 -9.536909 12.149984
O 10.593249 4.296870 3.901721
H 10.938026 4.276603 4.794442
H 9.809193 4.842889 3.959606
O 10.627817 18.262251 10.462447
H 10.805449 17.527087 9.875751
H 11.340781 18.879103 10.296897
O 18.468914 -6.723822 1.803851
H 18.674402 -5.947117 2.324174
H 17.588877 -6.559732 1.464969
O 6.583587 3.638285 6.162637
H 5.963895 3.480320 6.874859
H 7.001768 2.789880 6.015785
O 2.393347 3.485037 1.956236
H 2.536422 4.255231 2.506292
H 1.775018 2.947881 2.451580
O 4.377825 7.003449 3.695933
H 3.610999 6.704086 4.184391
H 4.016328 7.509372 2.968201
O 0.769142 3.793194 -2.105416
H 0.738852 3.906868 -3.055360
H 0.466721 2.896539 -1.961250
O -7.835688 8.748891 15.920595
H -7.183992 8.080678 15.708426
H -7.495208 9.550702 15.523854
O -2.008002 8.562619 -8.165821
H -1.286289 8.557994 -7.537059
H -2.779419 8.333747 -7.647394
O -3.875569 4.593917 14.342860
H -3.424871 3.749466 14.340456
H -3.807740 4.899573 15.247407
O 6.018892 18.019153 11.021874
H 5.317195 17.820821 11.641969
H 5.569867 18.159928 10.188333
O 2.763672 4.592607 8.774741
H 3.119941 5.451242 8.546594
H 2.089629 4.778450 9.428469
O 14.047413 6.099630 3.800348
H 13.776276 5.625022 3.014559
H 13.397793 6.796079 3.896190
O -1.305488 10.259090 3.434860
H -1.840580 10.961241 3.064872
H -1.921259 9.541801 3.585042
O -1.562186 10.646530 10.811471
H -2.178199 9.932857 10.977096
H -1.799423 11.320903 11.448002
O -4.900648 15.127913 3.326889
H -5.765549 14.746797 3.175467
H -4.900472 15.361444 4.255165
O 10.722394 9.435333 2.495817
H 11.104564 8.644879 2.114556
H 10.799549 10.095489 1.806997
O 6.580685 -4.683755 9.819178
H 7.521951 -4.818251 9.929452
H 6.294479 -4.299406 10.647787
O 10.833846 2.307433 1.498826
H 10.881949 1.490572 1.995471
H 10.401965 2.923193 2.090898
O 13.937110 19.321922 6.249737
H 13.474328 18.506205 6.058241
H 14.113591 19.705118 5.390524
O 16.198303 -3.256499 22.269458
H 15.374794 -3.454335 22.715468
H 16.226132 -3.868768 21.534213
O -0.193408 14.198923 -3.152379
H -0.755793 14.032255 -3.908802
H -0.174745 13.367027 -2.679270
O -1.100981 14.026736 -5.593631
H -1.760271 13.933977 -6.281356
H -0.389388 14.515060 -6.007644
O 9.063999 2.358164 -1.616955
H 9.990065 2.388345 -1.857210
H 9.065128 2.328287 -0.660222
O 11.714469 7.275059 0.968525
H 12.233045 7.718587 0.297262
H 10.836521 7.213919 0.592093
Cl 10.563968 7.318285 8.605115
