335
Lattice="15.077687 0.0 0.0 0.0 15.077687 0.0 0.0 0.0 15.077687" Properties=species:S:1:pos:R:3 pbc="T T T" ion=h3o T=300.0 t_ps=36.0
O 8.397873 7.106523 7.509538
H 9.031898 7.789580 7.812610
H 7.626870 7.161678 8.111957
H 8.825359 6.238814 7.352294
O 13.500501 4.190991 16.130117
H 13.151692 4.314093 17.012959
H 14.446773 4.295824 16.229168
O 12.653967 15.235935 11.216692
H 12.889574 14.760020 10.420309
H 11.759768 15.539097 11.059426
O 6.227093 13.331785 14.702378
H 6.184718 14.199367 15.104543
H 6.875574 12.857485 15.222707
O 6.787529 24.363085 13.290647
H 6.066162 23.734191 13.309451
H 6.853792 24.624891 12.372334
O 23.200450 -3.811643 8.820006
H 22.505712 -3.392601 8.312093
H 23.565050 -3.106718 9.355151
O 7.312489 11.884334 1.723560
H 6.449833 11.483895 1.615366
H 7.178353 12.570248 2.377594
O 9.673102 -4.518645 3.978769
H 9.930069 -4.349985 3.072263
H 10.162619 -3.874824 4.490726
O 29.586708 3.921336 -5.149533
H 29.418997 4.823984 -4.878736
H 29.649040 3.432282 -4.329062
O -0.879998 14.157752 -1.899125
H -1.404911 14.464121 -2.638608
H -1.339620 14.485898 -1.126273
O 20.772994 7.086068 8.685038
H 20.485815 7.988749 8.547467
H 20.132471 6.720834 9.295420
O 5.197583 -4.854406 15.681134
H 5.545729 -5.003745 14.802087
H 4.449153 -4.272891 15.547249
O 9.313878 2.140372 4.985127
H 10.037537 2.376456 4.404770
H 9.351903 2.785840 5.690929
O 8.028142 6.588038 10.947945
H 7.426670 7.330677 11.002271
H 7.460614 5.817520 10.969089
O 14.207914 17.494597 -7.608355
H 13.274642 17.301044 -7.696517
H 14.263448 18.064169 -6.841064
O 12.264677 -1.501374 2.905927
H 12.334592 -1.018547 2.082385
H 12.609302 -2.371280 2.704111
O -1.570286 11.404099 -2.016745
H -1.319412 12.293592 -1.767553
H -2.435707 11.501232 -2.414040
O 1.231541 -4.594073 11.975621
H 0.786943 -3.966913 12.545915
H 0.853852 -5.441670 12.210489
O 14.464093 2.465283 12.350070
H 15.232859 2.415630 12.918196
H 14.160096 1.560504 12.278013
O 22.059527 15.669319 2.350506
H 21.218415 15.606984 1.897873
H 22.024818 16.510087 2.806726
O 3.419299 17.844191 1.789907
H 3.691067 18.653367 1.356769
H 2.586024 18.063353 2.206862
O 11.461744 17.136405 7.672896
H 10.904647 17.913215 7.722314
H 11.168064 16.680241 6.884291
O 0.485620 -8.579490 17.340017
H 0.666285 -8.022368 16.582914
H 1.006457 -8.199352 18.047446
O 4.727891 15.506584 8.588665
H 5.651806 15.742753 8.505979
H 4.509199 15.708002 9.498520
O 5.957432 12.119446 7.186788
H 5.203614 12.706654 7.243152
H 5.760147 11.546078 6.446140
O 3.037314 4.117375 -7.942564
H 3.925620 4.381828 -8.181747
H 2.985884 3.194957 -8.193026
O 18.983219 5.778972 10.289477
H 18.377315 5.038265 10.311072
H 19.769219 5.459059 10.732300
O -0.034139 9.946811 19.639099
H -0.088472 10.214435 20.556518
H 0.860074 10.166430 19.377598
O 19.646177 7.493735 -1.268682
H 18.967044 7.511389 -1.942995
H 19.185614 7.711986 -0.458447
O 19.255639 10.910293 -3.115545
H 18.342324 10.778180 -3.369775
H 19.217510 11.114661 -2.181195
O 10.761302 17.546808 16.784071
H 10.180079 18.288441 16.615573
H 10.245533 16.777766 16.541607
O 1.119259 18.738035 17.648893
H 0.659703 18.378564 18.407722
H 0.861557 19.659625 17.626676
O 7.628343 12.034414 12.748259
H 7.231759 11.204651 13.013677
H 7.167426 12.696394 13.263592
O -6.798274 -11.537988 14.716038
H -6.430218 -10.766059 14.286047
H -7.133772 -11.210707 15.550639
O 2.767565 10.704917 7.103419
H 3.360342 10.216826 7.674920
H 2.840013 11.611836 7.400877
O 17.324098 -1.582837 20.013240
H 17.893037 -0.822097 19.895711
H 16.445326 -1.257855 19.817334
O 5.786219 4.363268 6.597301
H 6.303140 3.865623 7.230842
H 6.052991 4.017574 5.745503
O 6.921893 17.498740 11.260323
H 7.793842 17.379619 11.636816
H 7.081538 17.652828 10.329194
O 18.165720 -1.729364 7.670298
H 18.656255 -0.939882 7.899045
H 17.863203 -1.573163 6.775694
O 10.398239 15.980800 10.028862
H 10.154481 16.698859 10.612991
H 10.788527 16.411881 9.268549
O 11.907343 17.577938 4.151656
H 11.560213 17.372473 3.283603
H 12.047143 18.524749 4.136277
O 3.645477 1.437794 11.109100
H 3.051644 0.698012 10.981361
H 3.198693 2.177904 10.698182
O -4.568121 20.648617 11.558519
H -5.358112 21.177760 11.448277
H -4.368873 20.706640 12.492952
O 9.953985 11.046986 1.297232
H 9.873389 10.342378 0.654376
H 9.057073 11.353256 1.431325
O -1.711425 6.193885 12.751161
H -1.747149 6.155773 11.795387
H -2.235643 5.447230 13.040873
O 0.582669 0.405227 23.813778
H 0.021311 -0.361739 23.927231
H 0.052071 1.017735 23.304336
O 17.269023 10.685514 0.781587
H 16.375638 10.426387 0.555872
H 17.420422 11.486740 0.280242
O 12.853465 15.478691 15.982553
H 12.233215 16.180969 15.786779
H 13.688172 15.926862 16.119081
O 6.144638 -1.573545 4.045902
H 7.021710 -1.520025 4.425524
H 6.087673 -0.814596 3.465399
O -0.435238 3.125563 -10.125342
H -1.250343 2.846015 -10.542101
H -0.528815 2.857396 -9.211251
O -7.148632 0.883297 14.094041
H -7.009092 1.823993 14.202909
H -6.598740 0.479805 14.765639
O 7.291309 18.352914 8.498331
H 7.158760 17.522238 8.041561
H 8.073379 18.727525 8.093036
O 22.637313 0.545122 8.158673
H 22.784112 0.176303 7.287666
H 23.128486 -0.027608 8.747708
O 17.759352 16.540404 6.963934
H 17.044490 16.086092 7.409809
H 18.479575 16.531478 7.594356
O 16.108582 20.636268 5.429272
H 16.849210 20.304640 5.936939
H 15.495833 19.901894 5.390989
O 14.623782 9.923823 15.094635
H 14.321820 10.386790 14.313155
H 14.246706 9.047618 15.015201
O 8.398759 13.971916 21.202384
H 7.919779 13.285889 21.667331
H 9.272721 13.605406 21.067872
O 21.859763 8.151994 1.572552
H 21.150557 8.739261 1.311064
H 22.015835 8.359533 2.493856
O 1.684103 20.483625 -0.496241
H 2.485771 20.908343 -0.190996
H 1.612433 20.739031 -1.415949
O 5.183781 -4.026402 19.802876
H 4.296705 -4.018229 19.443348
H 5.560945 -3.189952 19.530239
O 9.903513 8.994009 8.672468
H 10.772777 9.302372 8.928446
H 9.343204 9.766468 8.747250
O -2.899230 18.524399 13.603357
H -2.041889 18.243335 13.283668
H -2.754853 18.732057 14.526539
O 9.145723 5.609555 3.927728
H 8.900881 6.447821 4.319639
H 9.470766 5.087517 4.661251
O 15.098722 10.556689 7.120332
H 16.029385 10.763795 7.205218
H 15.056887 9.603582 7.198234
O 5.350170 12.685306 25.341418
H 5.032166 12.087602 26.018068
H 5.809736 13.372057 25.824536
O -6.937420 8.206663 19.424736
H -7.766206 8.424162 19.851398
H -6.454174 9.032662 19.403967
O -0.351590 7.765929 -7.252512
H 0.023428 7.324641 -8.014652
H -1.258650 7.461788 -7.221330
O 19.846629 0.651002 0.947533
H 19.207554 0.002905 1.243819
H 19.421483 1.494783 1.100883
O 9.756186 17.926133 11.563828
H 10.075417 18.746890 11.188752
H 10.181230 17.872088 12.419776
O 4.383447 -8.341730 5.231129
H 4.727294 -8.881570 5.942870
H 4.388179 -8.919422 4.467924
O 6.179885 9.050711 5.991800
H 5.740281 9.773529 5.544011
H 5.534098 8.344207 5.998348
O 8.762062 13.622923 -4.971864
H 8.166951 13.969358 -4.306989
H 9.418703 14.309718 -5.087481
O 11.956517 25.652436 9.830451
H 12.895034 25.713635 10.008417
H 11.541488 25.785117 10.682729
O 13.813759 -3.825504 2.520490
H 13.833269 -4.405838 1.759528
H 14.054904 -4.387314 3.257003
O 0.051896 7.989931 -4.572622
H 0.171657 7.876705 -5.515527
H -0.863338 7.756627 -4.417227
O 6.153901 20.048652 11.674466
H 6.471282 19.149376 11.591977
H 6.043760 20.178827 12.616355
O 3.745402 0.548346 4.278292
H 4.296768 0.840078 5.004322
H 3.941774 1.158660 3.567527
O 9.220924 8.767572 14.714552
H 8.597196 8.462874 15.373607
H 8.681837 8.972755 13.950669
O 1.756536 -1.466307 12.927977
H 0.882730 -1.200133 13.214066
H 1.756062 -1.315009 11.982810
O 14.846205 -1.026937 4.028763
H 14.156834 -1.364695 3.456994
H 14.798745 -0.076425 3.926256
O 17.577113 7.389103 11.777996
H 16.677014 7.566491 11.504889
H 17.959470 6.906201 11.045303
O 2.307280 -6.977212 3.545309
H 2.605878 -6.074746 3.657676
H 2.867406 -7.489671 4.128298
O 4.809583 5.179916 0.109715
H 4.675689 5.803845 -0.603739
H 4.951223 4.340867 -0.328653
O 6.857906 -0.167302 11.831126
H 6.606921 0.720715 11.576837
H 7.207056 -0.073507 12.717426
O 4.710586 2.796400 -1.506985
H 4.863744 1.998124 -1.001485
H 4.666739 2.500064 -2.416102
O -4.336681 -3.604306 11.943363
H -4.833802 -2.825379 11.693611
H -4.747029 -3.900613 12.755796
O 7.829716 4.356021 2.081331
H 7.031298 4.882261 2.124136
H 8.443642 4.803593 2.663574
O 12.563674 21.976507 10.143867
H 11.839954 21.671911 10.691300
H 12.490020 21.461561 9.340351
O 17.990112 -7.102837 0.877754
H 17.884201 -7.089805 1.828987
H 17.694166 -6.238724 0.591473
O 6.910074 2.837618 4.269901
H 7.156462 3.656491 3.839816
H 7.728839 2.502838 4.635659
O 2.726081 -0.768132 1.722950
H 2.423014 -1.088644 2.572452
H 2.099503 -0.084018 1.487113
O -1.358889 6.987133 5.054396
H -1.512764 7.662625 4.393892
H -0.405734 6.923902 5.115466
O 3.757327 -2.806603 -0.736898
H 4.647734 -2.525404 -0.526339
H 3.302336 -2.000439 -0.980444
O -9.570172 5.785208 17.749750
H -9.904476 5.830680 16.853980
H -8.976927 6.532846 17.822748
O -2.558533 5.961255 -7.564661
H -3.174217 5.236781 -7.675582
H -2.411149 6.288919 -8.451873
O -1.957892 7.300213 15.295415
H -1.581043 6.531521 15.723586
H -1.717447 7.203663 14.373951
O 2.322414 14.228720 10.475564
H 3.152559 13.918316 10.113985
H 1.770965 14.386607 9.709270
O 1.775151 2.762169 13.730283
H 2.697266 2.660860 13.494333
H 1.731286 3.612680 14.167250
O 17.681196 11.201282 3.449502
H 17.412612 11.230438 2.531219
H 17.345188 12.015674 3.823795
O -3.088879 8.479641 3.149112
H -3.060680 8.636366 2.205251
H -3.743606 9.096956 3.475434
O -2.334176 12.464598 7.315100
H -2.666981 11.756833 7.866952
H -1.484209 12.149668 7.007520
O -4.046272 12.452055 5.335961
H -3.749542 13.118230 4.715967
H -3.375732 12.444245 6.019004
O 9.266756 14.925455 1.107850
H 9.669621 14.188173 1.566486
H 8.411492 15.029174 1.524980
O 7.127191 -5.842201 10.655370
H 7.655642 -5.151916 10.254774
H 6.277909 -5.778356 10.218477
O 16.011355 1.337743 0.953344
H 16.572337 1.473031 0.189650
H 16.102067 2.142654 1.463364
O 17.574518 18.652373 9.847002
H 16.660167 18.462758 10.057338
H 17.548789 18.998297 8.954867
O 13.914470 -1.462078 24.402492
H 14.110899 -2.259434 24.894296
H 13.313072 -1.746603 23.714307
O -0.506266 11.066090 -5.172615
H -0.233502 10.627699 -5.978620
H 0.135444 10.787887 -4.519129
O 4.752253 9.863294 -6.025200
H 5.270378 10.623211 -6.290352
H 4.351904 10.123442 -5.195577
O 12.302601 5.239521 3.359346
H 11.660560 5.904697 3.111240
H 12.970489 5.720947 3.847594
O 10.683961 6.341035 -0.719861
H 11.552359 6.699032 -0.535592
H 10.077147 7.022586 -0.430903
Cl 9.706415 4.342900 7.088036
