335
Lattice="15.139419 0.0 0.0 0.0 15.139419 0.0 0.0 0.0 15.139419" Properties=species:S:1:pos:R:3 pbc="T T T" ion=h3o T=300.0 t_ps=40.0
O 7.864871 7.560053 8.175897
H 8.224298 8.155712 7.485678
H 8.250965 7.904983 9.007976
H 8.123070 6.632557 7.992912
O 12.906943 4.067727 15.085146
H 12.485727 3.734288 15.877376
H 13.062510 4.994350 15.267901
O 14.282996 17.260806 10.034804
H 14.791428 16.650995 9.500145
H 13.668663 17.663436 9.421033
O 4.997854 13.236936 15.058971
H 4.504947 13.052359 14.259468
H 5.420859 12.406478 15.277229
O 8.436935 22.475028 15.055231
H 7.484584 22.378809 15.056568
H 8.646129 22.779629 14.172232
O 26.588043 -2.133154 9.192199
H 25.960384 -2.538831 8.594117
H 26.193857 -1.290776 9.418584
O 6.300419 11.677200 2.882845
H 5.576582 11.528482 3.491266
H 6.165906 11.032972 2.187785
O 8.808767 -3.468624 5.164064
H 8.801137 -3.562979 4.211557
H 9.551483 -2.891652 5.342130
O 31.581287 3.582307 -6.341655
H 31.361805 4.474295 -6.610761
H 31.085006 3.446153 -5.534562
O -1.371741 13.980108 -3.883089
H -1.737771 14.555841 -4.554494
H -2.133962 13.656215 -3.403147
O 21.436019 6.661199 10.798411
H 21.333613 7.470564 11.299084
H 22.351407 6.413125 10.927853
O 6.891704 -4.388887 15.383905
H 6.499088 -5.198078 15.711463
H 7.225177 -4.617964 14.516408
O 10.631604 2.548112 5.505496
H 10.182415 2.133631 4.768838
H 10.077600 3.294061 5.735434
O 8.864013 6.017242 10.857046
H 9.229586 6.767427 11.325886
H 8.699430 5.365406 11.538407
O 16.311428 18.147356 -9.171920
H 15.396073 17.868099 -9.152627
H 16.554462 18.236991 -8.250436
O 13.397782 -1.413744 3.769102
H 13.362685 -0.821095 3.018258
H 13.470941 -2.286461 3.382781
O -3.531179 11.119235 -3.974751
H -3.427423 11.725158 -4.708456
H -3.831087 11.668504 -3.250464
O 0.621523 -5.275796 10.541464
H -0.069478 -5.425694 11.186663
H 1.257364 -5.972460 10.704550
O 15.068219 1.904675 12.709839
H 15.954984 1.795236 12.366469
H 14.584562 2.321755 11.996850
O 22.127391 14.449687 2.845748
H 22.069571 13.512177 2.661453
H 21.267320 14.794845 2.606214
O 3.163087 18.416744 2.408210
H 2.220866 18.266289 2.484462
H 3.240583 19.147175 1.794453
O 13.678215 17.827119 5.608112
H 13.291853 18.682815 5.794501
H 13.317253 17.249242 6.280418
O -0.802194 -8.224232 15.764327
H -0.356150 -8.758342 15.107059
H -0.097761 -7.751825 16.207992
O 4.389783 13.762338 8.560252
H 4.844999 13.219965 9.204335
H 5.088312 14.126129 8.016244
O 5.921781 9.889469 9.605396
H 5.796856 10.670183 10.144944
H 5.253062 9.959086 8.924073
O 3.886159 4.111941 -8.570094
H 4.206333 4.262499 -7.680683
H 4.022370 3.176259 -8.719016
O 21.761958 5.017291 14.228166
H 21.121027 4.306713 14.205398
H 22.610884 4.575232 14.216328
O 0.758818 10.552596 19.309831
H 0.934531 10.761240 20.227341
H -0.187295 10.663094 19.215526
O 20.939693 7.437873 -0.364085
H 20.819688 6.488238 -0.368850
H 20.734792 7.701163 0.533092
O 18.742401 9.635294 -2.872622
H 18.415906 8.913366 -3.409699
H 18.228959 9.585834 -2.066295
O 10.679666 17.336396 16.862975
H 10.639357 16.671781 17.550647
H 10.776161 18.163889 17.334330
O -0.715605 19.997653 17.892269
H -1.602417 20.013893 18.252175
H -0.681805 20.751427 17.303275
O 8.839011 13.694835 13.953969
H 8.314597 13.908740 13.182305
H 8.613230 14.371173 14.592578
O -6.234368 -13.773235 19.000154
H -6.848754 -13.045233 18.906480
H -6.778416 -14.557363 18.926754
O 2.867462 11.797624 6.919691
H 3.505546 11.626992 6.226895
H 3.208341 12.567090 7.375712
O 18.541134 -0.765751 19.285976
H 18.464679 -1.186570 18.429647
H 17.637009 -0.603982 19.555458
O 5.338562 5.085090 8.916219
H 5.994645 4.394501 9.010415
H 5.599303 5.752071 9.551343
O 7.528911 16.685431 11.166000
H 8.078880 16.109085 10.635349
H 7.253547 17.376178 10.563277
O 15.398238 0.385793 8.206590
H 14.849143 -0.370836 8.001067
H 15.723816 0.683831 7.357236
O 12.207733 17.827160 8.047862
H 11.702857 18.163234 8.788393
H 11.719682 18.112465 7.275437
O 11.672721 19.613778 2.871005
H 11.717121 19.625892 3.827098
H 10.909760 20.151669 2.659355
O 2.628742 2.366745 11.987848
H 2.638820 1.677844 11.323359
H 2.681177 3.182050 11.489089
O -1.605414 21.343920 10.841829
H -2.293798 20.893311 11.331023
H -0.822398 21.245617 11.383543
O 9.334377 11.470159 2.505528
H 9.584112 10.647608 2.084489
H 8.400549 11.562568 2.316698
O -3.420538 4.591863 12.452214
H -4.358657 4.576626 12.641773
H -3.008226 4.273619 13.255303
O 0.629614 -0.040617 19.978986
H 0.397003 0.758088 19.505495
H -0.069595 -0.658463 19.765429
O 15.651248 12.378245 -1.664427
H 15.030971 11.657753 -1.553164
H 15.613748 12.585154 -2.598244
O 11.440289 13.601244 12.930369
H 10.513493 13.604487 13.169683
H 11.804105 14.370308 13.369016
O 6.567959 -3.351071 6.503687
H 7.331633 -3.230543 5.939323
H 6.688461 -2.715775 7.209455
O 0.596996 5.542805 -9.963149
H 0.229100 5.374174 -10.830587
H 0.686646 4.675695 -9.567783
O -9.221152 0.618602 14.499426
H -9.900798 0.133125 14.966999
H -8.427692 0.478710 15.016226
O 7.064105 18.192567 8.845475
H 6.667767 17.672952 8.146083
H 7.968108 18.327640 8.561283
O 22.425537 -1.617995 8.330775
H 22.274721 -0.672953 8.350308
H 22.747988 -1.827728 9.207285
O 18.840933 16.675851 5.764772
H 18.011817 17.022834 5.435529
H 18.909753 15.805633 5.372068
O 17.832243 21.725440 6.350542
H 18.476037 21.028276 6.475933
H 17.097901 21.297608 5.910162
O 14.144737 9.684587 12.919596
H 13.468183 10.210002 12.492459
H 13.786062 9.489305 13.785303
O 9.383652 15.718138 22.342509
H 9.284457 14.893773 21.866259
H 9.873460 16.283105 21.744904
O 20.529691 9.014370 1.797911
H 20.599972 8.791265 2.726090
H 19.629999 9.323830 1.692929
O -0.050864 22.087350 -2.322477
H 0.832535 22.312994 -2.031063
H -0.457375 22.928740 -2.529945
O 4.532796 -3.294924 20.017184
H 4.118966 -2.472926 19.753941
H 5.267815 -3.027617 20.569023
O 9.493198 8.987221 9.764289
H 10.430535 9.120375 9.623214
H 9.393700 8.970958 10.716165
O 0.610182 18.636147 15.069357
H 0.896931 18.109443 14.323307
H -0.340007 18.695529 14.970133
O 7.875450 6.758579 4.111062
H 7.019343 7.155993 4.270357
H 7.990993 6.140257 4.832560
O 13.575132 9.451989 7.046480
H 14.264363 10.003778 7.416240
H 13.063475 9.167345 7.803723
O 5.415029 12.605323 25.947609
H 4.753376 12.332663 26.583300
H 6.077981 13.056865 26.469948
O -5.886226 9.018669 20.899013
H -6.146125 8.497824 20.139141
H -6.185992 9.904857 20.696423
O 1.473697 7.893107 -6.698194
H 1.910275 7.514153 -7.461100
H 0.654186 7.404219 -6.623215
O 18.100554 -1.936713 1.720746
H 17.481916 -1.348824 1.287265
H 18.894999 -1.883178 1.189499
O 11.256199 17.309354 11.347076
H 11.301712 18.224879 11.622713
H 11.552575 16.813854 12.110537
O 3.562116 -8.331361 3.687372
H 3.248304 -8.492334 4.577227
H 4.112053 -9.088544 3.486188
O 5.752896 8.175978 4.673736
H 5.512815 9.061174 4.947635
H 4.921653 7.702912 4.635310
O 9.614281 15.341199 -5.313414
H 10.313391 15.881676 -4.945499
H 9.734088 15.406152 -6.260862
O 12.268974 23.808296 9.437327
H 12.491666 23.237964 10.173100
H 12.393624 24.695269 9.774924
O 13.289118 -4.055819 2.951879
H 13.357770 -4.217116 2.010868
H 12.362638 -4.190154 3.151430
O 2.293494 7.584963 -4.140967
H 2.586576 6.676907 -4.065012
H 2.053443 7.683391 -5.062335
O 8.889511 19.054367 12.597826
H 8.465542 18.202594 12.493116
H 9.078032 19.115099 13.534310
O 4.600576 0.623093 1.993126
H 4.296032 0.581201 2.899619
H 4.241084 1.444028 1.656878
O 10.035444 9.360972 16.169228
H 10.339414 8.942653 16.974735
H 9.395492 8.748061 15.807242
O 1.418851 -1.123374 11.532115
H 0.584245 -1.342078 11.117588
H 1.921460 -0.687108 10.844155
O 13.764891 0.122812 1.427126
H 14.249939 0.728206 1.987892
H 14.441931 -0.359422 0.952470
O 17.805618 7.747700 14.566913
H 17.442042 8.598140 14.813482
H 18.670717 7.728777 14.976153
O 0.955878 -7.546859 2.822819
H 0.769799 -6.931467 3.531973
H 1.902535 -7.682196 2.864732
O 3.895305 5.252970 0.645556
H 3.125883 5.582328 0.181072
H 4.217217 4.536334 0.098712
O 6.823702 -0.787809 12.355209
H 7.088030 -0.006314 11.869794
H 6.352540 -0.449447 13.116622
O 4.548244 2.965716 -1.271385
H 5.134007 2.219636 -1.143019
H 3.898182 2.654828 -1.901465
O -5.791521 -4.257290 14.008024
H -5.651724 -4.697941 14.846187
H -6.124362 -3.391567 14.244608
O 7.291419 3.282570 5.004777
H 6.482997 3.636417 4.633998
H 7.657940 4.005017 5.514644
O 14.518131 21.186735 8.023856
H 13.948144 21.299857 8.784481
H 13.924085 20.948432 7.312131
O 17.485498 -4.632692 -0.347824
H 17.577754 -4.561245 0.602237
H 16.894341 -3.918495 -0.585919
O 6.720113 1.281172 6.692527
H 6.721463 1.820068 5.901438
H 7.643980 1.200643 6.929625
O 1.043243 -0.541181 -0.025157
H 0.826122 -1.390853 -0.408755
H 1.188137 0.032010 -0.777944
O -1.679839 7.708008 5.050850
H -0.847748 7.234960 5.041752
H -1.554479 8.401667 5.698426
O 3.369037 -2.380202 -2.376842
H 2.650467 -1.790968 -2.606394
H 3.065436 -3.246267 -2.648855
O -10.073040 4.642411 19.270923
H -10.389118 4.435817 20.150494
H -10.645640 4.144874 18.687127
O -2.548667 5.253033 -9.179854
H -3.464130 5.288901 -8.902594
H -2.383038 6.110188 -9.572388
O -2.178660 9.456921 15.458591
H -1.945549 8.630966 15.882489
H -3.110788 9.568017 15.645746
O 2.497095 15.510592 9.712765
H 3.250943 15.060198 9.331859
H 1.820203 15.458344 9.037992
O 0.300217 2.043966 17.681522
H 0.319162 2.260829 16.749404
H -0.114479 2.800790 18.095618
O 18.006723 10.477893 2.328776
H 17.299311 10.351760 2.961145
H 18.047361 11.425518 2.199988
O -3.759751 8.502089 3.300395
H -4.243872 7.745123 2.970454
H -3.251961 8.160081 4.036202
O -4.045357 11.003506 6.974256
H -4.806673 10.424085 7.004257
H -3.295602 10.411648 6.912574
O -4.197546 13.276399 5.403347
H -3.646087 13.712420 4.753724
H -3.584947 12.771295 5.937971
O 8.392165 15.818773 0.557514
H 9.032150 16.499315 0.766112
H 8.211205 15.394338 1.396167
O 8.998045 -6.422212 12.349037
H 9.345175 -5.572714 12.621223
H 8.047534 -6.318752 12.394397
O 12.600746 0.710179 -1.560331
H 13.539053 0.864638 -1.669665
H 12.435562 0.882552 -0.633383
O 18.303626 20.040072 10.803451
H 17.663640 19.989881 10.093429
H 19.151894 20.064637 10.360652
O 13.722147 -1.808232 22.819734
H 14.317397 -2.539456 22.984718
H 12.862202 -2.134224 23.085168
O 0.370962 11.066417 -7.142277
H 1.222288 11.293996 -7.516021
H 0.575218 10.718407 -6.274291
O 6.362030 8.794811 -2.469448
H 5.538186 9.208839 -2.726535
H 6.145503 8.299726 -1.679361
O 9.675135 6.476675 2.148032
H 8.978692 6.682136 2.771718
H 9.296939 6.676230 1.291657
O 8.959935 3.738945 0.036936
H 9.694925 3.433878 0.568872
H 8.321032 4.061201 0.672693
Cl 9.328797 5.262752 6.636998
