335
Lattice="15.047292 0.0 0.0 0.0 15.047292 0.0 0.0 0.0 15.047292" Properties=species:S:1:pos:R:3 pbc="T T T" ion=h3o T=300.0 t_ps=16.0
O 6.453499 5.883396 10.573498
H 6.563099 4.942516 10.322238
H 5.901402 6.366771 9.923930
H 7.301093 6.373492 10.615781
O 13.080447 0.585965 12.949412
H 13.417699 0.273901 13.789120
H 13.072840 -0.190863 12.390205
O 14.661960 12.490178 14.446715
H 15.615804 12.508527 14.524676
H 14.493665 12.658608 13.519601
O -0.048215 14.700069 8.924200
H -0.963106 14.480890 8.747659
H 0.374646 14.674419 8.065851
O 6.660376 18.420617 10.074066
H 6.360156 17.693841 10.619864
H 7.590011 18.244167 9.929580
O 24.677212 -0.091298 5.109894
H 23.773434 -0.405005 5.078187
H 24.769674 0.286168 5.984652
O 8.386818 11.867014 2.079458
H 9.008654 11.872329 1.351774
H 8.490235 11.002527 2.477199
O 7.619944 -5.388549 4.674210
H 8.451962 -5.788655 4.926982
H 7.396954 -5.804291 3.841345
O 26.908755 1.996292 -6.073547
H 27.854509 2.137060 -6.029216
H 26.784183 1.101626 -5.756869
O 0.816739 8.544914 -1.604782
H 1.731275 8.818239 -1.676537
H 0.455098 9.096593 -0.911170
O 15.988221 8.060329 8.419167
H 16.832362 8.306683 8.041057
H 16.205607 7.414027 9.090932
O 3.740082 1.587862 13.241418
H 2.946722 1.239278 13.647988
H 4.206775 2.019415 13.957093
O 7.454399 5.338004 7.539989
H 7.538925 4.437151 7.227657
H 8.353287 5.616776 7.714682
O 4.990862 6.538003 8.451133
H 4.616269 7.375056 8.176808
H 5.630816 6.327145 7.771259
O 9.307086 14.903701 -6.915087
H 8.602417 15.480443 -6.620059
H 8.859194 14.192412 -7.373011
O 15.765603 2.195070 4.275943
H 15.128617 2.557505 3.660215
H 15.239990 1.686363 4.893342
O 2.396151 12.681091 -0.906885
H 3.164972 12.791490 -0.347458
H 2.725068 12.220040 -1.678557
O 4.399751 -1.807063 15.710716
H 4.446699 -0.893476 15.992474
H 5.313453 -2.077012 15.618476
O 14.602837 2.115932 9.444954
H 15.417650 2.616993 9.480301
H 14.874124 1.234364 9.189075
O 20.508649 19.471033 -1.226962
H 20.026951 19.313457 -2.038978
H 19.962259 19.081503 -0.544352
O 8.069128 19.050673 2.651727
H 8.700252 19.030728 3.371113
H 7.263764 18.696875 3.029150
O 10.052017 21.533955 7.889630
H 9.846631 22.143017 8.598919
H 10.914132 21.184625 8.115369
O 2.059103 -9.247090 12.605406
H 1.683113 -8.416179 12.314802
H 1.585759 -9.456098 13.410697
O 8.472840 10.906879 9.080432
H 8.849387 11.363594 9.832666
H 8.590505 9.978145 9.280030
O 1.951598 12.132535 7.479818
H 1.166929 11.755150 7.082191
H 1.704251 12.296722 8.389815
O 3.353144 8.524652 -7.382899
H 3.486182 8.009840 -8.178827
H 3.831230 9.338714 -7.540915
O 20.391997 9.071472 10.647033
H 20.959343 9.069219 11.417972
H 20.592741 9.895746 10.203743
O -1.086788 15.263861 15.494844
H -1.178918 16.137778 15.874334
H -0.572968 14.775772 16.138265
O 19.691544 6.858220 1.700271
H 19.125134 7.615598 1.847884
H 19.756071 6.788814 0.747774
O 19.535524 9.229670 3.615601
H 19.165832 10.105882 3.506912
H 20.311036 9.225108 3.054538
O 10.568335 17.428525 21.619229
H 9.692621 17.807812 21.693391
H 10.720995 17.009716 22.466297
O -1.228257 16.428626 21.307900
H -1.917977 16.250102 21.947155
H -1.254946 17.377495 21.184745
O 6.479784 11.231491 15.497198
H 6.338881 10.287552 15.570397
H 7.141229 11.427570 16.160731
O -1.295056 -7.317593 15.911279
H -0.886973 -6.452301 15.880149
H -1.909194 -7.319849 15.177071
O 2.873863 7.985945 10.514686
H 2.391628 8.317262 9.757118
H 3.744977 8.374215 10.433207
O 22.470747 2.422512 15.460998
H 22.664376 3.173087 16.022582
H 22.973717 2.583953 14.662757
O 11.009899 -0.921554 9.989698
H 10.382033 -0.808786 9.276046
H 10.555542 -1.476444 10.623645
O 5.395050 13.409674 11.278778
H 5.187116 14.332176 11.130504
H 6.079729 13.422483 11.947570
O 20.132988 0.053982 5.345393
H 20.699845 -0.716737 5.375357
H 19.454761 -0.171546 4.708701
O 11.490100 11.491590 12.786439
H 11.010093 11.645338 13.600187
H 11.610477 10.542528 12.754467
O 15.488938 13.707363 2.279747
H 14.944071 13.959784 3.025157
H 15.592371 12.759872 2.368033
O 2.475397 4.405768 4.613274
H 1.819229 5.092644 4.495481
H 1.971080 3.592362 4.629609
O -1.331842 17.971100 11.958357
H -1.016084 17.808023 11.069574
H -1.857303 17.199972 12.171627
O 11.743511 10.919180 3.575614
H 11.604682 11.689278 4.126893
H 12.003384 11.275799 2.726191
O 2.042630 3.398206 9.612582
H 2.645296 3.591657 10.330636
H 2.347941 3.945416 8.888995
O -0.690687 -1.151475 20.167405
H -0.815977 -0.257140 20.484737
H -1.562266 -1.545033 20.208552
O 17.695452 15.066668 3.801116
H 17.240317 15.908738 3.802240
H 17.135593 14.491965 3.279095
O 10.176006 12.322876 14.974178
H 9.977963 13.222744 14.714855
H 10.944636 12.399661 15.539460
O 3.505079 -3.267327 3.146592
H 4.113744 -2.772917 3.695515
H 3.547986 -2.836799 2.292757
O 1.065001 6.758416 -10.795999
H 1.220939 7.027026 -11.701407
H 0.190791 6.368756 -10.808450
O -4.138995 1.402357 14.547087
H -3.279298 1.114668 14.239862
H -3.975284 1.756723 15.421074
O 8.002468 12.816533 7.136813
H 8.280879 12.162361 7.777733
H 7.281190 12.399242 6.665796
O 22.751963 3.102702 6.033481
H 22.360295 2.929412 5.177444
H 22.172171 2.663829 6.655947
O 18.039786 15.924709 8.744634
H 17.733133 15.637519 7.884566
H 17.542562 16.723078 8.922419
O 14.214698 22.200289 6.705144
H 15.051184 22.370468 7.138228
H 14.437797 21.634099 5.966302
O 13.159464 7.903036 13.246806
H 13.072388 7.100491 12.732441
H 14.071292 8.167903 13.125784
O 6.420242 16.614213 18.525675
H 6.935244 15.809224 18.470915
H 5.705098 16.401270 19.125222
O 21.031756 12.138781 5.295540
H 21.524846 11.340803 5.104951
H 20.404508 11.877994 5.969915
O -1.194976 17.631526 1.919715
H -2.098697 17.502537 2.207607
H -1.105755 18.580022 1.826835
O 8.738333 -0.262414 15.283019
H 9.439693 0.190113 14.814463
H 8.121831 0.430511 15.519688
O 9.125716 5.847191 15.484411
H 9.389620 5.239864 14.793223
H 9.104841 5.312843 16.278306
O -2.457019 12.412899 16.300318
H -1.672393 12.777486 15.890842
H -2.707078 13.060807 16.959042
O 11.119828 6.382421 5.091684
H 10.653727 7.060436 4.602526
H 10.625083 6.290992 5.905994
O 13.827983 10.731562 9.650528
H 13.285657 10.097014 10.118998
H 14.085132 10.280232 8.846534
O 4.989310 16.278670 16.193175
H 5.284562 16.480435 17.081066
H 5.714370 16.552046 15.631227
O -8.415588 6.656118 14.911194
H -7.573621 6.342805 15.241585
H -8.868493 5.864827 14.619704
O 3.336885 9.294222 -2.012237
H 3.198163 8.653282 -2.709507
H 3.624851 10.085494 -2.467426
O 16.666463 4.801699 0.295988
H 17.346960 4.346096 0.791551
H 16.262575 4.119379 -0.240246
O 9.015586 9.425566 13.400951
H 8.175655 9.845362 13.586744
H 8.826415 8.815321 12.688176
O 4.339463 -4.070254 7.148201
H 3.510337 -3.592006 7.155962
H 4.743855 -3.863171 7.990706
O 7.478778 14.059860 3.424128
H 6.968773 13.488334 3.998136
H 7.843688 13.471924 2.762762
O 12.081617 9.138725 -4.049913
H 11.206542 8.879297 -4.338312
H 12.235109 8.624975 -3.256986
O 10.465203 20.049400 11.282838
H 11.408318 20.207270 11.239907
H 10.070516 20.900459 11.092696
O 11.708077 -2.041149 5.310515
H 11.879552 -1.870343 6.236611
H 10.917806 -1.537344 5.115874
O 2.876123 9.744835 0.704816
H 2.992887 9.859567 -0.238283
H 2.037354 9.291464 0.789390
O 9.451987 12.193213 11.184165
H 8.847390 12.665320 11.756711
H 9.977118 11.657792 11.778970
O 5.091555 4.922110 3.618825
H 4.239473 4.772737 4.028551
H 5.043334 5.817686 3.284385
O 7.483341 -2.327522 13.423800
H 7.074815 -2.896627 14.076070
H 7.958648 -1.675239 13.938430
O 1.333199 0.355621 14.102879
H 1.483554 -0.574780 13.935608
H 0.522214 0.380155 14.610750
O 14.424787 -3.328455 6.662311
H 14.154054 -3.957217 5.993286
H 14.631792 -2.532006 6.173383
O 12.731082 5.820793 8.561695
H 13.148976 6.524139 8.064803
H 12.987383 5.019430 8.105232
O 0.967025 -4.098778 2.960513
H 0.622280 -4.782533 3.534848
H 1.917353 -4.161517 3.056289
O 6.197670 8.917738 -1.467225
H 5.260482 9.090223 -1.376893
H 6.324626 8.061617 -1.058360
O 1.893423 -0.372315 6.641137
H 1.958882 -1.300442 6.865919
H 1.798411 -0.362177 5.688718
O 3.734311 3.807802 -3.235862
H 3.692148 3.180188 -2.514367
H 3.093099 4.480485 -3.006569
O -1.925488 -9.545736 11.423693
H -1.593268 -10.443214 11.443582
H -2.004928 -9.339826 10.492284
O 10.389223 3.890163 4.070190
H 10.562936 4.797954 4.319128
H 10.480155 3.396255 4.885063
O 9.319492 17.823335 9.758054
H 10.172598 17.749654 9.330254
H 9.523755 18.072073 10.659519
O 16.332521 -7.565960 1.582183
H 15.388395 -7.632899 1.439429
H 16.708440 -8.247104 1.024545
O 6.096489 1.632822 7.651793
H 5.469347 1.811496 8.352508
H 5.556196 1.362586 6.909306
O 3.946083 3.876312 1.228629
H 4.279033 4.552910 1.818198
H 4.271687 3.055212 1.597422
O 3.714436 7.236028 5.338987
H 2.867664 6.994037 4.963954
H 3.973194 8.023007 4.859467
O 0.675911 3.066687 -1.453842
H -0.076062 3.143359 -2.041115
H 0.782322 2.124611 -1.321933
O -8.149483 8.879277 17.001962
H -8.556095 8.012865 16.986852
H -7.272906 8.739274 16.643851
O -2.297176 13.382476 -6.942643
H -3.054962 13.444382 -6.361127
H -2.027033 12.465811 -6.888057
O -0.822280 5.194842 16.700727
H -1.138050 6.005826 16.302197
H 0.087606 5.124015 16.412070
O 5.033474 15.996440 10.763599
H 4.467269 16.186101 11.511711
H 4.430942 15.890097 10.027475
O 3.354872 4.590473 7.378552
H 3.429564 4.795974 6.446660
H 4.055731 5.094276 7.792329
O 13.665027 5.722308 4.464122
H 13.457159 5.353418 3.605668
H 12.826962 6.043936 4.796437
O -0.062642 10.074041 0.469338
H -0.403821 10.922031 0.185186
H 0.309992 10.243038 1.334679
O -1.581716 13.056534 11.867473
H -2.269218 12.486189 12.211392
H -1.617169 12.930285 10.919298
O -4.531589 14.242525 2.474357
H -5.301305 14.353410 1.916259
H -4.826885 14.506679 3.345710
O 10.317418 8.482002 3.614648
H 10.108539 8.483519 2.680517
H 10.915028 9.221066 3.728133
O 5.642677 -3.685948 9.522402
H 6.567069 -3.577821 9.298707
H 5.486966 -3.044720 10.215809
O 11.248279 1.853518 2.201638
H 11.074639 0.930865 2.388164
H 10.709948 2.331358 2.832590
O 13.222623 18.950668 6.689366
H 12.287959 18.912547 6.486431
H 13.586729 19.544468 6.032814
O 14.152931 -5.601756 19.758568
H 13.944783 -6.221938 20.457339
H 13.353470 -5.553660 19.234372
O 3.181653 11.802024 -3.296529
H 2.527252 12.225081 -3.852420
H 3.964570 12.344350 -3.392215
O 1.013480 12.430371 -4.992193
H 0.154463 12.016824 -4.906751
H 0.823544 13.317055 -5.298702
O 9.419676 3.496038 -1.523991
H 9.988671 3.960258 -2.137975
H 9.948011 2.759075 -1.217431
O 9.447704 8.602225 0.965417
H 9.507827 9.169795 0.196989
H 9.412812 7.715481 0.606671
Cl 9.007710 7.993947 10.733861
