335
Lattice="15.256545 0.0 0.0 0.0 15.256545 0.0 0.0 0.0 15.256545" Properties=species:S:1:pos:R:3 pbc="T T T" ion=h3o T=300.0 t_ps=12.0
O 6.396745 6.479070 10.006934
H 6.444321 5.503178 9.930880
H 5.850992 6.906152 9.314001
H 7.261837 6.939503 10.003987
O 14.681325 1.964493 15.746746
H 14.540968 2.157563 16.673707
H 14.655652 1.009090 15.694037
O 14.874479 14.644145 14.486171
H 15.601996 15.125027 14.091580
H 14.498960 14.141432 13.763332
O -0.623320 13.678338 10.120118
H -1.061104 13.284254 9.365616
H 0.306298 13.499348 9.978676
O 6.595393 18.961075 9.942991
H 5.921988 18.411792 10.344298
H 7.376179 18.407706 9.923340
O 25.098140 -0.794435 3.037747
H 24.323717 -1.342427 3.165051
H 25.066674 -0.163673 3.757038
O 8.290107 11.167812 0.347981
H 7.782455 10.627286 -0.257290
H 8.740967 10.538707 0.911172
O 8.417107 -3.994789 4.799163
H 7.722543 -3.360727 4.620896
H 8.007416 -4.847260 4.651928
O 24.944096 0.220157 -3.280767
H 25.623316 -0.373896 -3.600132
H 24.139434 -0.297427 -3.310061
O 1.315423 9.962279 -0.535367
H 2.090119 10.337629 -0.953924
H 0.911297 10.697765 -0.074961
O 15.572978 5.921324 10.182157
H 16.250474 6.442346 10.613164
H 15.960354 5.670418 9.343577
O 5.980336 5.298313 13.607371
H 5.343209 5.007985 14.260066
H 6.395161 4.491697 13.301558
O 8.904165 4.101271 6.936299
H 9.464876 3.600366 7.528691
H 9.331848 4.954664 6.865309
O 6.347834 4.253436 5.664526
H 7.270060 4.318585 5.912492
H 6.304798 4.649431 4.794143
O 7.643168 15.377330 -8.624101
H 7.032196 16.057447 -8.340579
H 7.152776 14.868027 -9.269359
O 13.725997 4.202866 6.188977
H 13.158422 4.537233 5.494506
H 13.876998 3.286974 5.955370
O 2.160186 15.615363 -1.084100
H 2.587718 15.709372 -0.232859
H 2.388346 14.731100 -1.370897
O 4.868963 -2.028051 14.023821
H 4.490682 -2.758373 13.534164
H 5.638925 -1.771912 13.516098
O 14.200965 1.049318 11.085921
H 13.650053 1.587929 10.517918
H 14.147630 0.170987 10.709197
O 19.927992 22.615996 -2.499995
H 19.014464 22.330702 -2.517507
H 20.424241 21.820367 -2.307791
O 5.659016 20.730992 3.266565
H 4.784113 20.996378 3.550022
H 6.076535 21.544418 2.983283
O 10.168108 21.790450 7.061521
H 9.655428 22.350960 7.643946
H 10.799092 21.359048 7.637701
O 1.873976 -8.379117 12.549901
H 1.234006 -7.670765 12.479845
H 1.535342 -8.940371 13.247434
O 8.596665 11.128638 10.374066
H 8.773271 10.191452 10.292058
H 8.901002 11.503426 9.547540
O 1.587370 10.038555 9.770740
H 1.628550 9.674253 8.886534
H 1.090870 9.392812 10.273468
O 3.226503 11.883917 -4.813731
H 4.108553 11.515848 -4.866125
H 2.650063 11.162505 -5.065749
O 21.332545 10.387563 11.109386
H 22.115084 10.791144 10.733903
H 20.792709 10.160644 10.352210
O -0.648414 17.044589 18.470225
H -0.975501 17.349077 19.316708
H -0.586745 16.094051 18.564594
O 22.278167 7.385313 1.696882
H 21.795550 7.974743 1.117327
H 22.901715 6.941172 1.122288
O 19.366431 8.624235 6.164102
H 19.066959 8.377668 5.289029
H 19.847321 9.441231 6.031836
O 9.728191 16.331680 20.441258
H 9.309040 17.062380 19.986702
H 9.041605 15.973421 21.003826
O -0.772488 16.982892 21.196425
H 0.017063 16.470293 21.369871
H -1.488576 16.439128 21.524708
O 9.066765 12.338776 13.131874
H 9.093771 11.605154 12.517625
H 8.956536 11.929325 13.990029
O 0.375508 -7.804216 15.897039
H 0.497608 -8.609403 15.394049
H 0.562955 -7.101641 15.274557
O 4.630587 8.320818 9.020831
H 4.687943 8.489483 8.080355
H 3.698118 8.399244 9.222282
O 20.630251 4.002111 15.930167
H 21.190215 4.522520 16.506227
H 20.933707 3.102154 16.049435
O 11.507032 -1.578552 8.351231
H 10.621845 -1.795458 8.058608
H 11.430046 -1.486463 9.300876
O 5.502363 14.446114 10.416405
H 5.121160 15.322175 10.475003
H 6.014947 14.353229 11.219438
O 20.207486 0.548513 4.511510
H 20.307068 0.954719 5.372504
H 19.490450 1.030972 4.100021
O 12.611899 10.816816 11.888580
H 12.008749 10.073586 11.895639
H 13.413663 10.471513 11.495932
O 16.027270 14.427222 4.277611
H 15.259454 13.906207 4.512631
H 16.544001 13.852076 3.713316
O 2.953081 3.446269 5.956927
H 3.066690 2.947817 6.766168
H 2.745510 2.786132 5.295591
O -0.237786 17.849709 13.152153
H -0.604233 17.096129 12.689481
H -0.238505 17.589360 14.073266
O 12.738828 9.891173 3.084010
H 12.147758 10.576675 3.395387
H 13.090764 10.232880 2.262055
O 1.222641 3.220090 10.591944
H 0.503292 2.629308 10.814979
H 0.816853 4.085822 10.546391
O -1.157625 -2.406498 20.418254
H -1.371017 -2.610467 21.328799
H -1.821541 -2.868937 19.906788
O 16.851716 15.691721 6.676283
H 16.908923 15.140139 7.456485
H 16.832776 15.073227 5.945982
O 12.038079 8.961013 14.622474
H 12.482733 9.784795 14.822218
H 11.145294 9.219528 14.393704
O 4.971012 -2.979199 1.278760
H 4.906860 -2.678421 0.372311
H 5.059669 -3.929835 1.210469
O 0.707749 5.289172 -7.915772
H -0.068970 4.816517 -8.215000
H 1.440942 4.828841 -8.324129
O -3.158684 1.851475 14.829831
H -2.254287 2.033492 15.085108
H -3.642023 1.832571 15.655821
O 8.835325 12.540091 7.574307
H 8.779503 12.011496 6.778252
H 8.207368 13.249170 7.436067
O 18.400030 5.947959 4.697902
H 18.466345 5.135694 5.199958
H 17.616423 5.834349 4.160050
O 18.466347 17.425948 8.661261
H 17.913666 16.796671 8.197811
H 17.861733 17.904018 9.228821
O 12.075149 20.191974 8.435534
H 12.369072 21.008066 8.840300
H 12.573168 20.135596 7.620040
O 13.035026 7.717223 12.390293
H 13.148698 6.780139 12.548987
H 12.624189 8.047809 13.189141
O 6.300933 16.688051 17.295291
H 6.662249 15.884461 16.921224
H 6.105115 16.462541 18.204704
O 21.538772 13.468169 4.976603
H 21.005200 12.701276 5.184948
H 20.906087 14.177941 4.866306
O -3.039779 19.621437 3.742302
H -3.273528 18.842281 3.237813
H -3.850622 20.127757 3.791355
O 8.309517 1.217687 14.369837
H 9.088468 0.992632 13.861096
H 8.634832 1.352254 15.259946
O 10.915230 4.182848 14.042306
H 10.840274 4.460340 13.129282
H 11.305343 3.309949 13.996581
O -1.959270 11.112213 15.814910
H -1.111569 11.522390 15.986346
H -2.518279 11.830901 15.519564
O 9.836399 5.553571 4.228655
H 10.018027 6.210985 3.557053
H 9.819794 6.046680 5.048898
O 13.171956 9.511475 8.074133
H 12.848486 8.754597 8.562738
H 13.388163 9.163984 7.208837
O 3.237308 16.997005 16.527527
H 3.983499 16.465596 16.805080
H 3.590838 17.882711 16.445221
O -6.838441 5.757882 15.336627
H -5.892016 5.618593 15.303295
H -7.179151 5.271751 14.585744
O 3.653225 10.015997 -2.193780
H 4.050048 9.152693 -2.309832
H 3.248053 10.209486 -3.039138
O 18.259212 7.536928 1.617784
H 18.385180 6.588053 1.617146
H 17.436710 7.670147 1.146643
O 9.803861 9.114722 12.752203
H 8.875468 9.287090 12.909069
H 9.813842 8.513713 12.007273
O 4.634434 -3.806571 6.131943
H 3.688128 -3.948125 6.105493
H 4.779777 -3.305331 6.934355
O 7.293026 13.868109 1.644113
H 6.536226 13.282903 1.612154
H 8.017895 13.341641 1.307024
O 12.364030 7.399535 -5.450859
H 11.456934 7.695458 -5.374452
H 12.695314 7.406889 -4.552845
O 10.665460 19.999426 11.171732
H 11.622556 20.013325 11.169175
H 10.411861 20.891146 10.933497
O 10.791147 -3.239211 3.259932
H 10.192064 -3.507309 3.956678
H 10.573310 -2.321658 3.095993
O 5.054253 9.257124 0.455086
H 4.314133 8.780846 0.831402
H 4.860528 9.300630 -0.481295
O 10.855812 13.020028 10.878626
H 9.988969 12.745255 11.177482
H 11.425499 12.277575 11.079750
O 1.186906 4.530942 3.282222
H 1.151185 3.588368 3.445036
H 0.272631 4.789090 3.165209
O 7.123857 -0.929302 12.907137
H 7.769718 -1.491855 13.334488
H 6.989174 -0.208341 13.522205
O 2.331639 1.669867 19.159196
H 2.507200 1.666773 18.218239
H 1.540979 1.139382 19.257552
O 16.937153 -3.763881 6.635172
H 16.808879 -4.699435 6.478595
H 16.193513 -3.344017 6.202801
O 12.360156 2.380516 9.375945
H 12.111211 3.195020 8.939089
H 12.368796 1.726359 8.677206
O 2.168745 -2.745674 2.472976
H 2.025264 -3.592804 2.894896
H 3.062851 -2.794423 2.134701
O 7.178108 9.394727 -1.909604
H 6.704819 9.939142 -2.538762
H 6.805582 8.520070 -2.021098
O 1.837114 -1.840949 8.615253
H 2.382273 -2.142796 9.341836
H 1.875411 -2.551593 7.975136
O 3.315640 2.868485 -2.423736
H 2.904971 2.129818 -1.974343
H 2.651769 3.171796 -3.043018
O -1.777292 -10.466552 11.895318
H -1.266193 -11.156797 12.317895
H -1.195725 -10.116203 11.220583
O 8.519941 3.190425 3.624159
H 7.612334 3.321658 3.349826
H 8.803608 4.050373 3.934407
O 9.086055 17.792961 10.383396
H 9.360818 16.988143 10.822720
H 9.734179 18.445051 10.649754
O 17.154333 -5.355239 3.590488
H 16.278017 -5.620415 3.869746
H 17.420887 -6.028781 2.964771
O 5.550484 1.876114 6.690082
H 5.523415 2.703079 6.208804
H 5.378926 2.121791 7.599171
O 2.765782 5.021939 1.141480
H 2.261201 4.714414 1.894513
H 3.641109 4.658105 1.274369
O 1.895877 8.095334 7.661087
H 1.411249 7.291321 7.474187
H 2.417767 8.249522 6.873630
O 0.916265 5.039885 -0.885215
H 0.885912 4.136355 -1.199769
H 1.577777 5.031071 -0.193438
O -6.249121 9.198246 17.588639
H -7.046696 8.671905 17.533232
H -5.536828 8.563230 17.513642
O -1.525685 12.331685 -7.403298
H -2.330388 12.839417 -7.298932
H -1.795295 11.423629 -7.265537
O -1.034969 5.832874 17.810433
H -1.916640 5.468177 17.733722
H -0.900401 6.309699 16.991433
O 4.830560 17.126889 10.785026
H 4.407204 17.428023 11.588966
H 4.137949 17.152838 10.124838
O 5.306058 6.059652 7.179231
H 4.636273 6.360988 6.565376
H 5.710773 5.309526 6.743630
O 15.321522 7.227000 4.826568
H 15.269465 6.487725 5.432369
H 15.039583 6.868104 3.985179
O 0.273624 12.390827 0.673061
H 0.112166 13.284430 0.370347
H 0.850577 12.494352 1.429791
O 0.272167 8.914263 12.197217
H -0.584077 8.493814 12.276591
H 0.475284 9.214234 13.083215
O -3.355272 13.383385 -0.047812
H -3.589731 13.103908 -0.932771
H -2.564300 13.909777 -0.164031
O 11.191213 7.559974 2.779602
H 11.444219 7.001988 2.044162
H 11.735199 8.341965 2.685791
O 5.510605 -3.057978 8.815824
H 5.410944 -2.250373 9.319881
H 6.423299 -3.049809 8.527458
O 9.792827 1.446018 1.476757
H 10.044803 0.531450 1.604448
H 9.187290 1.630601 2.194731
O 11.965400 16.419346 6.807851
H 11.615730 15.550427 7.005188
H 11.361527 16.779177 6.158165
O 14.635162 -5.545831 20.308424
H 15.067607 -6.391987 20.423496
H 13.981776 -5.701034 19.626346
O 1.976867 12.624928 -2.116733
H 1.037890 12.448537 -2.058090
H 2.223003 12.325962 -2.992100
O -1.219653 12.970964 -2.546475
H -1.510917 12.165893 -2.974562
H -1.089912 13.590958 -3.264115
O 7.926957 3.524822 -2.312591
H 8.535224 3.499267 -3.051231
H 7.989691 2.654180 -1.919809
O 11.745612 6.309640 0.521736
H 11.727013 7.120104 0.012783
H 11.643825 5.615164 -0.129089
Cl 9.121431 7.506727 9.913946
