335
Lattice="14.889849 0.0 0.0 0.0 14.889849 0.0 0.0 0.0 14.889849" Properties=species:S:1:pos:R:3 pbc="T T T" ion=h3o T=300.0 t_ps=8.0
O 6.452082 4.978735 10.862712
H 6.487390 4.029307 11.103003
H 5.761213 5.161232 10.192045
H 7.318221 5.270210 10.508811
O 13.246520 1.625297 13.874602
H 13.761280 1.441976 14.660507
H 13.322749 0.830317 13.346940
O 14.415446 14.471027 11.959660
H 14.175983 13.580224 12.215317
H 13.707165 14.753201 11.380914
O 0.247312 13.575724 6.954463
H -0.556436 13.421034 7.450742
H 0.949688 13.469686 7.596068
O 5.792610 16.978774 11.105375
H 4.838990 16.941309 11.179108
H 6.043956 16.107788 10.798065
O 24.379341 -0.720017 2.572105
H 23.769525 -1.457453 2.548768
H 24.133765 -0.230273 3.357009
O 7.210520 10.689595 -0.987829
H 6.929269 9.785385 -1.127592
H 8.121778 10.616354 -0.704144
O 7.308656 -5.120296 4.830825
H 6.386806 -4.885352 4.724879
H 7.453211 -5.818724 4.192441
O 24.177200 -0.897360 -4.748833
H 24.280312 -1.691264 -4.224126
H 23.242167 -0.698117 -4.701422
O 0.301401 10.101418 1.163647
H -0.232723 9.307494 1.188693
H 1.184841 9.803242 1.380111
O 15.005017 7.037330 10.860049
H 15.457489 7.568995 11.514903
H 15.495990 7.183385 10.051442
O 5.981250 4.577906 13.732195
H 5.845433 4.466787 14.673172
H 6.704375 3.986799 13.522639
O 10.076401 2.542535 6.642264
H 10.070704 2.297089 7.567443
H 10.227163 3.487782 6.645669
O 6.939495 3.310861 7.146093
H 7.872279 3.379260 7.349727
H 6.803310 3.934120 6.432487
O 6.449391 15.745872 -9.116641
H 5.621314 15.362974 -8.826968
H 6.623544 16.445503 -8.487024
O 15.761388 6.220394 6.379444
H 15.384947 6.472879 5.536369
H 16.155906 5.363157 6.219035
O 1.967299 15.169615 -2.040478
H 2.595374 14.481041 -2.258698
H 1.132133 14.849492 -2.381435
O 3.988382 -1.608541 12.955395
H 3.907598 -2.445024 12.497135
H 4.928803 -1.503947 13.099970
O 12.651262 0.716858 10.216930
H 12.647234 1.530929 9.713438
H 11.749463 0.399742 10.167659
O 17.840284 17.352479 -3.097771
H 17.454680 16.513357 -2.845943
H 17.784314 17.889215 -2.307193
O 7.731975 19.764451 4.834965
H 6.775152 19.738384 4.841316
H 7.949192 20.449802 4.203030
O 10.614838 20.103938 7.111089
H 10.143584 20.132463 7.943758
H 11.511176 20.355274 7.333889
O 0.986693 -6.745295 13.336337
H 1.491231 -6.067137 13.785530
H 1.322302 -7.568607 13.690958
O 9.978098 8.865416 8.370193
H 9.577200 7.998978 8.439453
H 9.538891 9.274143 7.624357
O 4.631212 6.488917 12.382882
H 3.723173 6.337473 12.645108
H 5.116152 5.756452 12.763095
O 3.762833 10.842096 -3.193319
H 4.276805 10.427532 -3.886285
H 2.852258 10.690532 -3.446522
O 20.754028 9.670880 9.387962
H 21.602469 9.968669 9.716140
H 20.944978 8.844587 8.944103
O -1.490211 15.584942 16.694602
H -1.662262 16.303464 17.303170
H -1.509531 14.798610 17.240075
O 22.937811 7.403956 3.706009
H 22.579125 7.470028 2.821017
H 23.885636 7.462309 3.585782
O 18.041640 9.412015 8.236239
H 18.929022 9.559957 8.563192
H 18.148348 8.769590 7.534716
O 8.982865 15.517957 19.876721
H 9.420409 16.274838 20.266488
H 8.075267 15.586541 20.173022
O -1.280243 16.461503 20.850817
H -0.698810 15.882361 20.358108
H -1.800197 15.871705 21.396726
O 7.629656 10.970786 11.078054
H 8.569760 10.842538 10.951604
H 7.512444 10.966104 12.028039
O -1.493574 -6.903895 15.851867
H -1.104636 -7.764078 15.693612
H -2.311936 -6.915548 15.355500
O 6.843222 7.702585 7.508204
H 7.385953 7.945330 6.758037
H 7.421828 7.180703 8.064159
O 20.653105 4.077959 16.719956
H 20.512798 3.797247 17.624249
H 20.734340 3.262464 16.225385
O 10.594596 -2.739346 8.770626
H 10.080655 -3.270471 8.162348
H 10.043161 -1.977554 8.949020
O 6.522170 14.265690 10.174424
H 5.713084 14.551949 9.750553
H 6.236427 13.885823 11.005257
O 21.369145 1.166124 3.151742
H 21.420255 1.343363 4.091000
H 21.530230 0.225630 3.075877
O 12.701624 12.224394 11.563191
H 13.241060 11.493023 11.863752
H 12.937774 12.334129 10.642092
O 17.949001 15.291318 4.956691
H 17.002126 15.252512 4.821950
H 18.164523 14.463136 5.385524
O 2.988931 3.671118 5.381434
H 2.308675 3.174261 5.835985
H 3.003066 3.305072 4.497103
O 0.280369 18.720006 13.441260
H -0.103335 17.846720 13.521100
H -0.169075 19.241342 14.106421
O 11.779973 10.010180 3.596696
H 11.003996 10.401348 3.998044
H 11.966529 10.567896 2.841460
O 1.228088 2.507110 9.573263
H 1.926490 2.356771 10.210339
H 0.725233 3.236334 9.936030
O -1.583518 -1.632384 18.060745
H -1.316175 -2.509690 18.334777
H -2.278642 -1.391133 18.672980
O 15.293937 14.794694 4.652140
H 14.985948 14.276831 5.395909
H 15.103499 14.252304 3.886779
O 9.840421 9.793336 14.779300
H 9.427788 9.742823 15.641515
H 10.673668 10.237025 14.937639
O 4.855163 -3.126079 0.229971
H 4.359820 -2.645672 -0.433411
H 5.460545 -3.672338 -0.271375
O 2.076173 7.024329 -5.950152
H 1.790208 6.906637 -6.856024
H 2.427732 7.914222 -5.923162
O -3.414452 3.136873 15.192063
H -2.855739 2.615532 14.615630
H -3.964606 2.493650 15.639081
O 8.750441 11.023522 6.876196
H 8.185201 10.572980 6.248703
H 8.185321 11.683874 7.277202
O 19.971603 5.169345 4.750902
H 19.135524 4.737290 4.925638
H 19.738829 5.945242 4.240969
O 15.671545 18.134293 6.964952
H 14.793373 17.795709 6.790577
H 15.942291 17.695257 7.771286
O 13.125709 20.719980 7.524541
H 13.027881 21.592881 7.904942
H 14.065188 20.632264 7.363552
O 12.049439 7.678947 11.803234
H 12.440015 7.015745 12.372308
H 11.107066 7.595057 11.948587
O 5.877172 16.428871 15.440300
H 6.733268 16.446763 15.012501
H 6.072166 16.248740 16.359953
O 20.048068 11.811049 4.764551
H 19.918512 12.363266 5.535591
H 19.163302 11.567186 4.492610
O -1.930877 17.767786 3.634044
H -1.746350 17.365399 4.482729
H -2.883857 17.854775 3.611819
O 8.934466 0.398225 13.372483
H 9.613338 -0.255364 13.204595
H 9.027477 0.607570 14.301868
O 11.181995 5.032306 13.324680
H 11.001807 4.504844 12.546510
H 11.256144 4.394795 14.034831
O -3.066202 11.327148 15.958511
H -2.220031 11.419872 15.520757
H -3.361290 12.226143 16.103294
O 10.941709 5.244008 4.345089
H 10.639994 6.121934 4.111754
H 10.770649 5.173163 5.284212
O 14.314472 9.846859 7.934572
H 13.849630 9.142993 8.387038
H 14.471774 9.503855 7.054892
O 3.158898 15.852755 15.381605
H 4.070841 15.988898 15.124590
H 2.703926 15.663745 14.560930
O -8.087971 8.144538 13.189888
H -7.298328 7.998796 12.668875
H -8.776007 7.673572 12.719751
O 3.078801 9.295055 1.312915
H 3.546496 9.485975 0.499869
H 3.106467 10.116113 1.804168
O 18.995323 6.912097 2.904875
H 18.620159 6.472949 2.141571
H 18.602104 7.784765 2.897022
O 9.421896 7.729574 12.088441
H 9.410825 8.679482 11.971041
H 9.292067 7.377404 11.207900
O 4.884754 -1.253535 6.953174
H 4.092333 -1.695528 7.258039
H 5.601693 -1.732108 7.369344
O 6.278892 13.100912 2.382207
H 5.966991 12.705784 3.196347
H 5.770908 12.668668 1.695658
O 12.510003 8.251501 -5.811588
H 11.618574 8.507124 -6.048742
H 12.419807 7.832237 -4.955834
O 10.359801 18.602035 10.897446
H 11.098005 18.320488 10.357059
H 9.988648 19.348286 10.426717
O 9.878517 -3.312476 4.510288
H 10.346257 -2.502801 4.714926
H 9.661851 -3.686840 5.364184
O 6.920897 7.838240 1.157112
H 6.001926 7.862654 0.890412
H 7.396451 7.608541 0.358790
O 10.211800 10.192425 10.983329
H 10.205921 9.758013 10.130402
H 10.940049 10.811524 10.932316
O 0.567997 3.511777 2.617352
H 1.131028 2.744284 2.718260
H -0.272168 3.243666 2.989468
O 6.628840 -1.169195 13.115409
H 6.898693 -1.786153 13.795684
H 7.348393 -0.540141 13.062800
O 3.343895 2.306393 17.911806
H 3.501356 1.785282 17.124481
H 3.368356 1.672119 18.628277
O 17.808781 -2.818184 8.065860
H 17.698815 -2.557033 8.980157
H 17.770585 -3.774465 8.083161
O 12.577902 3.340980 9.231578
H 13.294307 3.420198 9.861435
H 12.586340 4.169917 8.753014
O 2.827773 -3.451903 3.147128
H 1.978832 -3.371605 3.581965
H 2.780129 -2.839766 2.412792
O 4.018155 9.253044 -1.188815
H 4.129034 9.685548 -2.035502
H 4.326748 8.358654 -1.333963
O 1.166505 -0.248062 9.449529
H 0.796324 -0.580404 10.267298
H 1.117974 0.704199 9.533654
O 4.447960 5.382896 -5.740776
H 4.372728 4.607589 -6.297077
H 3.667094 5.898884 -5.941365
O -0.368796 -10.652173 10.757123
H -0.373731 -10.834461 11.696793
H -0.286888 -9.700334 10.697738
O 9.504445 3.442259 3.045775
H 9.979349 4.107898 3.543392
H 8.707487 3.286817 3.552655
O 9.625936 16.430302 9.221897
H 9.570398 15.590774 9.678340
H 9.597279 17.085101 9.919498
O 15.040622 -3.614312 3.677294
H 14.811529 -4.309708 4.293875
H 15.133266 -4.060741 2.835659
O 4.338143 2.823261 7.745212
H 5.254037 2.683061 7.504977
H 3.873301 2.857619 6.909166
O 2.784863 4.934847 1.213754
H 2.098235 4.608373 1.795294
H 3.595415 4.574525 1.573484
O 1.271123 10.276290 10.508899
H 0.953534 10.351707 9.609076
H 0.489567 10.073693 11.023056
O 2.291798 5.725814 -1.323600
H 1.666376 5.071976 -1.635968
H 2.412293 5.519109 -0.396785
O -6.227389 10.615169 16.964471
H -7.168397 10.789204 16.943312
H -5.928723 11.009735 17.783829
O -1.511085 12.331652 -6.023247
H -2.463541 12.314016 -6.116779
H -1.235722 11.432464 -6.201763
O -0.838564 5.060514 15.713657
H -1.761360 4.806775 15.696420
H -0.508984 4.710982 16.541568
O 3.841760 15.235930 9.170044
H 3.989126 16.014665 8.633307
H 2.932299 14.993242 8.996220
O 3.966937 7.435185 6.597036
H 4.887589 7.424842 6.858807
H 3.865219 6.658744 6.046558
O 14.086449 6.676689 4.192365
H 13.665846 7.052886 3.419189
H 13.551630 5.912907 4.408783
O 2.001565 13.338898 1.378761
H 2.514199 14.147218 1.371275
H 1.235890 13.535298 0.838946
O -0.803727 9.955766 12.341611
H -1.324840 9.279325 11.909061
H -0.259396 9.476543 12.966334
O -3.590529 13.965976 0.652785
H -4.220599 14.106625 1.359512
H -2.898593 14.606638 0.817126
O 10.438680 7.538284 2.901023
H 10.615394 7.081090 2.078844
H 10.884500 8.380208 2.808070
O 6.914863 -2.494954 8.304039
H 6.787141 -1.792900 8.942035
H 6.436210 -3.239805 8.667796
O 9.409149 1.608699 1.008498
H 9.237245 0.886497 1.612738
H 9.307586 2.397095 1.541741
O 11.240220 13.811270 5.276391
H 11.360360 13.876017 6.223812
H 10.459176 14.334805 5.097190
O 13.861715 -5.727311 19.983957
H 14.122893 -6.594396 19.673825
H 13.151225 -5.466751 19.397830
O -0.730819 12.181314 -0.690582
H -1.143978 11.527140 -1.254131
H -0.142851 11.676837 -0.128418
O -4.495618 12.980462 -1.963211
H -4.274902 12.682947 -1.080600
H -3.692657 12.851006 -2.467915
O 8.077114 3.217921 -2.026403
H 8.727986 3.918655 -1.986775
H 8.578743 2.415899 -1.880249
O 10.963725 7.264879 -0.132695
H 10.346999 7.945603 -0.401946
H 10.881860 6.587656 -0.804185
Cl 8.807597 6.212219 9.431097
