335
Lattice="15.078460 0.0 0.0 0.0 15.078460 0.0 0.0 0.0 15.078460" Properties=species:S:1:pos:R:3 pbc="T T T" ion=h3o T=300.0 t_ps=24.0
O 8.212297 7.386415 8.558053
H 7.937904 7.110882 9.457602
H 7.909228 6.716614 7.910043
H 9.188325 7.353107 8.476429
O 13.364067 2.087621 15.176092
H 13.174657 1.544849 15.941438
H 13.553992 2.953565 15.537063
O 10.264878 15.583506 11.242050
H 11.065117 16.095543 11.125142
H 9.576416 16.121624 10.851305
O 1.248803 15.914670 8.743421
H 1.403788 16.772671 9.138448
H 0.415676 16.009940 8.281842
O 7.509055 21.392024 10.883159
H 7.950436 20.542749 10.871091
H 6.959452 21.365742 11.666408
O 22.884475 -3.195432 8.386062
H 22.238558 -3.560529 7.781308
H 22.421143 -2.487179 8.833200
O 9.412842 10.776221 -0.043260
H 8.803200 11.514020 -0.028373
H 10.236211 11.151517 -0.355428
O 7.997399 -7.349081 2.795159
H 8.695086 -7.066570 2.203845
H 7.209184 -7.352338 2.252076
O 28.606114 1.278288 -7.056448
H 28.433312 2.048222 -7.598273
H 28.386012 1.556231 -6.167328
O 0.006662 9.731899 0.830229
H 0.475338 10.321729 0.239741
H -0.484614 10.313571 1.410348
O 19.394780 7.649534 7.604913
H 19.336274 7.781511 8.551164
H 18.795432 8.297578 7.234707
O 4.040119 0.379269 15.137588
H 3.569093 0.746089 14.389384
H 4.887094 0.825149 15.130006
O 8.101441 3.227079 6.522266
H 8.535817 2.393077 6.701123
H 8.662085 3.655856 5.875690
O 6.992425 6.047789 6.532579
H 6.432972 6.698869 6.109094
H 6.620502 5.205405 6.271246
O 7.679665 16.780184 -5.730363
H 8.324408 16.390976 -6.321172
H 7.016124 17.152674 -6.311049
O 15.090678 1.059874 3.544545
H 16.023435 1.230181 3.413423
H 14.992593 0.978656 4.493236
O -1.620844 12.800902 -3.072612
H -1.412477 13.720855 -2.909823
H -0.815986 12.330481 -2.855497
O 0.208810 -1.410575 14.702638
H -0.278905 -1.082533 15.458122
H 0.713970 -2.148064 15.044917
O 12.787590 1.954350 10.791614
H 12.501218 2.817641 11.089862
H 13.396615 1.656791 11.467468
O 20.340326 18.592577 0.009306
H 19.400779 18.706793 -0.133652
H 20.479596 18.862968 0.916899
O 8.370629 20.256515 2.118989
H 8.329140 21.187873 2.335972
H 7.455713 19.977436 2.083262
O 11.560397 20.784001 5.862360
H 11.530993 21.192068 6.727720
H 11.914098 21.463548 5.288476
O 3.284653 -9.815434 17.607142
H 2.449521 -9.831472 18.074613
H 3.045025 -9.664281 16.692832
O 9.448897 10.348005 10.460116
H 10.102804 11.037287 10.343807
H 8.790654 10.525838 9.788311
O 3.792898 11.277701 7.266631
H 3.776343 12.129694 6.830665
H 4.079999 11.470388 8.159199
O 6.247578 8.240690 -10.272936
H 5.685483 8.038457 -11.020855
H 7.038245 7.721501 -10.419633
O 19.818084 7.678341 10.355311
H 19.165543 8.057720 10.943948
H 20.596540 8.221687 10.477839
O -1.783815 14.648729 17.251781
H -2.535853 15.011194 17.720066
H -1.028449 15.108021 17.618803
O 19.433575 7.249864 -0.768500
H 20.223774 7.646510 -0.401773
H 18.713576 7.670809 -0.298778
O 17.136458 11.448201 -0.149295
H 17.533350 11.114059 0.655105
H 17.816334 11.994820 -0.543259
O 9.263874 15.740165 22.448072
H 8.652369 15.081552 22.118643
H 10.129883 15.385584 22.246746
O 1.330902 18.752205 21.003354
H 1.994789 19.341983 21.360633
H 0.960385 19.229509 20.260973
O 4.657509 12.584741 14.314078
H 4.458339 13.516806 14.225661
H 5.597035 12.556202 14.494931
O -4.123168 -12.609784 18.094979
H -4.122121 -13.456802 18.540839
H -4.771011 -12.089327 18.570011
O 1.923108 9.335940 7.747205
H 2.217121 10.235807 7.605687
H 1.562611 9.337897 8.633923
O 17.717866 0.809069 17.656202
H 18.252159 1.259098 18.310600
H 18.308793 0.674374 16.915328
O 8.874257 3.845899 10.791380
H 8.653667 3.282583 11.533166
H 8.743677 3.291651 10.021971
O 5.025326 11.230397 11.986791
H 4.910248 11.869025 12.690455
H 4.461672 10.497179 12.233604
O 19.782034 -1.132495 3.592146
H 20.143733 -1.993992 3.800062
H 18.895341 -1.313400 3.280249
O 11.871041 12.207725 14.709925
H 12.031180 11.614652 13.975861
H 11.571299 13.019802 14.301370
O 13.268051 18.692779 6.315226
H 13.947238 18.850203 5.659364
H 12.545587 19.263968 6.054418
O 3.421624 4.940349 7.455014
H 3.555925 4.749318 8.383293
H 3.642142 5.867582 7.366461
O -3.558707 19.507242 11.587779
H -3.028938 20.155811 11.124167
H -4.385721 19.484454 11.106363
O 9.914528 11.359115 3.154395
H 10.329338 11.043406 3.957198
H 10.624742 11.389916 2.513397
O 1.876712 5.286688 12.394203
H 1.225063 4.617462 12.185101
H 2.626651 5.073172 11.839014
O -3.451568 -0.585826 21.780753
H -2.740706 -0.057184 22.143308
H -3.397737 -1.416657 22.253040
O 16.675869 13.202567 3.620451
H 16.706865 14.137679 3.418368
H 15.923898 13.108192 4.205143
O 12.614085 11.960978 17.218431
H 12.324495 11.878812 16.309795
H 12.876398 12.877476 17.304766
O 3.028060 -4.221768 2.839181
H 3.858306 -3.782321 3.023057
H 2.358815 -3.584707 3.089171
O 1.250274 6.000077 -10.766899
H 0.442812 6.191937 -11.243792
H 1.805855 6.764697 -10.918285
O -4.916750 1.619763 14.977867
H -4.197859 2.247251 14.902463
H -5.110328 1.588034 15.914752
O 6.488765 14.085806 9.582203
H 6.429276 13.992718 10.533007
H 6.933339 14.923191 9.450401
O 22.657659 -1.438234 6.223499
H 22.878833 -2.016915 6.953186
H 21.733381 -1.615199 6.048499
O 18.402723 15.659633 7.245070
H 17.601969 15.877004 7.722328
H 18.373755 16.211743 6.463682
O 15.579363 21.833545 6.864682
H 16.211510 22.494815 7.146361
H 15.886760 21.560507 6.000280
O 13.855692 7.531085 14.508857
H 14.687451 7.612315 14.042156
H 13.760662 8.361041 14.976162
O 6.708578 14.313201 16.701076
H 7.485012 14.273939 17.259502
H 5.976976 14.395957 17.312748
O 20.662905 11.579966 4.133971
H 21.280214 11.097907 3.583716
H 20.826946 11.255735 5.019520
O 0.574332 17.425636 -1.540763
H -0.230371 17.433283 -1.022471
H 0.358506 16.900385 -2.311322
O 7.799872 -2.082076 14.642839
H 8.621605 -1.648867 14.411932
H 7.446724 -1.558916 15.362437
O 8.246426 7.813688 13.488164
H 9.200495 7.890996 13.490728
H 8.020970 7.655037 12.571522
O -3.925026 15.180592 19.090880
H -3.816848 15.146876 20.041350
H -4.735931 14.700007 18.924440
O 11.353615 8.117663 3.687158
H 11.100770 8.007494 2.770553
H 10.685327 8.697490 4.052430
O 11.590425 12.027397 7.688727
H 12.438706 11.630784 7.490359
H 11.527615 11.994813 8.643308
O 4.673347 13.645933 21.267567
H 4.251995 14.399288 21.681270
H 4.665879 13.850335 20.332476
O -6.367783 5.195758 14.356922
H -6.488359 5.309436 15.299668
H -6.485299 6.073014 13.992444
O 0.644012 9.454996 -4.588246
H 0.910125 10.346336 -4.362573
H -0.291468 9.425770 -4.387613
O 17.736396 4.160154 -0.114019
H 17.159521 3.397232 -0.151387
H 17.500069 4.677653 -0.883809
O 10.241879 14.337988 13.686165
H 10.271806 14.659598 12.785108
H 10.364250 15.120070 14.224314
O 6.085822 -4.843569 6.504656
H 6.257280 -5.705239 6.124709
H 5.138586 -4.825686 6.641242
O 7.375095 10.350007 2.567969
H 8.238431 10.755892 2.646328
H 7.452172 9.526941 3.050517
O 11.331596 10.192612 -2.242603
H 10.543495 9.955717 -2.731488
H 12.052230 10.008020 -2.844969
O 12.983795 24.072420 10.891241
H 12.192680 24.109965 10.353691
H 13.174122 23.137920 10.973203
O 10.855737 -4.575646 5.579094
H 11.010726 -3.865854 6.202316
H 11.239747 -5.347823 5.994438
O 3.390755 8.792219 -2.610587
H 2.539508 8.885968 -2.183009
H 3.883272 8.203871 -2.038306
O 6.807769 14.316905 12.411059
H 7.048781 15.223654 12.600667
H 7.029572 13.837669 13.209412
O 5.867007 4.599230 3.212549
H 4.961153 4.822878 2.998910
H 5.816872 4.197655 4.079991
O 8.002594 2.646581 13.416125
H 8.472868 2.104771 14.049777
H 8.107211 3.540970 13.740710
O -0.424263 0.128890 12.192009
H -0.369267 -0.102182 13.119270
H 0.254472 -0.399686 11.772297
O 14.287451 -1.790654 5.418860
H 14.321777 -2.338858 6.202777
H 13.373773 -1.832468 5.136591
O 16.583996 3.376934 10.337116
H 17.381152 3.906421 10.316663
H 15.976264 3.835636 9.757041
O 2.506296 -6.702537 4.949225
H 2.303774 -5.958595 5.516469
H 3.115628 -6.350640 4.300291
O 5.839640 5.311981 -1.999926
H 5.274207 6.030770 -1.717329
H 5.722975 4.637542 -1.330783
O 4.165041 -2.515688 9.712841
H 4.508437 -2.884287 10.526748
H 4.909260 -2.055166 9.325168
O 4.973183 2.613218 -3.387965
H 4.359043 1.912108 -3.170002
H 5.552132 2.670047 -2.627819
O 0.784343 -7.281684 12.708701
H 1.115868 -8.170570 12.581405
H 0.721877 -6.919952 11.824687
O 9.399635 4.222445 4.448179
H 10.029856 4.873556 4.756572
H 9.079372 4.573235 3.617150
O 13.184370 21.354294 10.324866
H 13.911628 20.880140 9.921748
H 12.638797 21.628640 9.587766
O 17.595454 -6.472374 1.233631
H 17.563284 -5.771467 1.884727
H 16.679848 -6.716543 1.098427
O 5.526500 3.615907 5.794876
H 5.074745 3.985282 6.553633
H 6.434834 3.518129 6.080535
O 3.377356 1.967531 5.127853
H 4.115119 2.556042 5.287830
H 2.603424 2.490616 5.336763
O 4.749806 7.644394 2.560164
H 4.102656 7.997729 1.949769
H 4.433351 6.763934 2.762349
O 2.947911 1.029532 -2.157442
H 2.226053 1.634941 -1.988229
H 2.631577 0.471488 -2.867900
O -8.588150 8.800758 15.548503
H -7.835216 8.665431 14.973169
H -8.332922 9.533108 16.109532
O -1.994336 8.627036 -8.488773
H -1.366410 7.934644 -8.695011
H -2.461477 8.305475 -7.717663
O -1.595986 4.902708 15.562021
H -2.338026 4.568032 15.058433
H -1.260673 5.631450 15.039783
O 5.128370 17.693491 8.754947
H 5.236932 17.625582 9.703543
H 4.684879 16.882737 8.505497
O 3.669216 4.937361 10.346608
H 4.042117 5.785026 10.104449
H 4.394883 4.463060 10.752414
O 13.826434 6.702781 3.142301
H 13.581970 6.175635 2.381652
H 13.461240 7.568894 2.961435
O -1.464936 9.867543 3.529690
H -1.897845 10.685643 3.285694
H -2.100349 9.416255 4.085406
O -3.566687 12.663837 10.318799
H -2.801247 12.472888 10.860899
H -4.086714 13.272372 10.843669
O -6.292864 13.860361 3.293023
H -6.050039 12.934576 3.306867
H -6.632020 14.032669 4.171383
O 10.146588 8.484912 1.155105
H 10.505466 7.944055 0.451604
H 9.931555 9.316479 0.732627
O 6.784909 -5.659639 10.927797
H 7.700251 -5.379688 10.925015
H 6.307582 -4.915853 11.295456
O 13.683412 3.427303 3.201980
H 14.123379 2.577387 3.219421
H 12.756260 3.215412 3.093707
O 14.704491 19.886759 8.456164
H 14.167378 19.259992 7.971493
H 14.962933 20.536932 7.802930
O 14.255590 -4.247531 22.349708
H 14.975296 -4.541261 22.908258
H 13.815031 -5.054043 22.081980
O 0.940692 11.699543 -2.974679
H 1.139016 11.430669 -2.077680
H 1.607748 12.353948 -3.182099
O 2.102303 14.171821 -4.234655
H 1.741365 14.710181 -4.939016
H 2.752047 13.616672 -4.665785
O 11.214085 4.126643 -0.818349
H 11.340437 4.049673 -1.764045
H 10.264720 4.175334 -0.706247
O 11.240257 6.960292 -0.862597
H 12.151686 7.164771 -1.071682
H 11.156399 6.024343 -1.044805
Cl 11.021006 7.385720 8.520066
