335
Lattice="15.089347 0.0 0.0 0.0 15.089347 0.0 0.0 0.0 15.089347" Properties=species:S:1:pos:R:3 pbc="T T T" ion=h3o T=300.0 t_ps=28.0
O 8.262651 8.232256 8.810185
H 8.690943 8.938615 9.337453
H 7.632708 7.743341 9.379878
H 8.972264 7.645606 8.474477
O 14.415184 4.040486 17.794069
H 13.726330 4.685478 17.633765
H 15.227826 4.545589 17.767316
O 12.076661 13.683625 8.205514
H 12.841096 13.919309 7.679848
H 11.593445 14.503591 8.307446
O 1.860770 16.053167 9.386261
H 2.631304 16.362936 9.862238
H 1.183160 16.701240 9.578819
O 7.608896 21.963256 13.391470
H 6.805838 21.601533 13.016655
H 7.366145 22.845234 13.673282
O 22.181560 -3.581804 9.463328
H 21.236468 -3.457291 9.376547
H 22.493845 -2.773277 9.869521
O 6.873459 9.453245 -1.044827
H 6.341603 9.647104 -0.272959
H 6.675776 10.162278 -1.656729
O 8.479274 -6.492907 2.707514
H 9.160967 -5.834477 2.573361
H 8.468763 -6.638153 3.653571
O 29.284216 2.220074 -5.921087
H 28.954975 2.637298 -6.717175
H 28.582330 1.626975 -5.653089
O -1.823192 12.142006 -0.943314
H -2.316568 12.868619 -0.562729
H -0.974464 12.170821 -0.501655
O 18.267050 7.880554 8.430198
H 18.577762 8.399082 9.172370
H 18.724475 8.246775 7.673313
O 3.491322 -0.647610 14.368788
H 2.634077 -0.223785 14.327134
H 4.117432 0.076410 14.365025
O 9.522129 1.915551 6.201840
H 10.155571 1.281901 6.538694
H 9.950728 2.764468 6.310815
O 6.629349 6.681267 10.254342
H 5.862212 6.710723 10.826063
H 6.688245 5.766507 9.978702
O 11.006330 16.123359 -6.020872
H 11.447379 16.042777 -5.175168
H 10.851163 17.062459 -6.122095
O 15.123506 0.107959 3.146237
H 15.544110 0.809128 2.648555
H 15.780433 -0.156667 3.790171
O -2.021252 13.076573 -4.515190
H -2.594867 12.452519 -4.070495
H -2.455120 13.247852 -5.351046
O -0.193667 -3.520520 12.081160
H -0.798696 -3.326646 12.797110
H -0.604037 -3.132355 11.308401
O 12.089094 1.038893 11.646038
H 11.620286 1.777599 12.034321
H 13.012576 1.224601 11.816112
O 20.037105 16.674425 -0.275076
H 19.606273 17.158847 0.429162
H 20.897161 16.449347 0.079714
O 6.345951 18.942391 2.511453
H 5.756592 19.394895 1.908023
H 5.818086 18.793320 3.295906
O 9.995813 18.706986 10.041428
H 10.290052 19.566919 9.741145
H 9.053647 18.809215 10.175979
O 1.516645 -9.698366 17.608868
H 1.752108 -8.903963 17.129585
H 2.010330 -10.394953 17.176116
O 7.930818 11.289657 7.027487
H 8.863734 11.413344 7.202420
H 7.502341 11.485899 7.860631
O 4.689893 12.292907 9.009290
H 4.961416 12.898392 8.319439
H 4.017736 12.769709 9.496216
O 6.431605 4.933687 -7.428003
H 5.540815 4.763929 -7.121560
H 6.539472 4.356393 -8.183866
O 19.075031 9.072420 11.139942
H 18.138619 9.270542 11.129369
H 19.490215 9.889958 11.414690
O -1.013893 12.665565 17.341524
H -1.593816 13.085471 16.706228
H -0.658287 13.389493 17.856989
O 18.510716 5.705182 -0.524919
H 19.367017 5.758494 -0.100491
H 18.041395 6.480387 -0.216655
O 17.509052 12.408837 -2.414974
H 16.557376 12.318598 -2.463995
H 17.663538 12.880659 -1.596592
O 10.732922 14.611125 20.475950
H 9.789197 14.765839 20.516927
H 10.815169 13.672060 20.309747
O 2.633915 18.452475 21.506843
H 3.120515 18.988106 22.133383
H 1.743745 18.803508 21.531450
O 8.313295 14.032388 13.518609
H 8.060013 14.343754 14.387592
H 9.205092 14.358330 13.397402
O -5.573809 -12.887226 16.258783
H -4.980948 -13.492952 16.703579
H -5.688867 -12.166137 16.877673
O 3.435396 10.244909 6.799359
H 4.182641 10.483084 7.348111
H 2.695529 10.714572 7.184387
O 19.156838 -0.888823 17.141043
H 18.618063 -0.175248 17.482750
H 18.999051 -0.877811 16.197001
O 7.300535 3.581018 10.210120
H 6.884002 3.093205 9.499649
H 7.711291 2.908976 10.754060
O 5.387104 13.681425 12.365860
H 6.164342 13.787650 12.914357
H 4.651428 13.808304 12.964954
O 18.992719 -2.505945 5.037871
H 18.966332 -2.673118 4.095752
H 18.804363 -3.355026 5.437640
O 10.739167 15.055115 13.812575
H 10.521488 15.970240 13.989756
H 11.334043 15.090625 13.063513
O 12.986365 17.999079 6.459750
H 12.887140 17.472466 5.666614
H 12.378212 18.728662 6.341046
O 3.540260 4.755168 8.564060
H 3.748864 4.667235 9.494105
H 3.378509 5.690646 8.441793
O -3.152217 19.344092 12.861140
H -3.075427 19.614756 11.946221
H -3.292644 20.159879 13.341769
O 10.389547 11.117102 2.492017
H 11.207116 10.644014 2.337099
H 10.083890 11.360581 1.618218
O -0.640046 4.051516 13.489004
H -1.522588 3.992870 13.123064
H -0.079799 4.238190 12.735673
O -1.387347 0.275113 21.774342
H -1.058732 1.168896 21.677415
H -2.338075 0.359853 21.702457
O 15.975751 12.552034 0.161632
H 15.498969 12.422366 0.981447
H 16.055335 13.502247 0.078003
O 12.035883 13.785681 15.849061
H 11.518475 14.232450 15.179047
H 11.856568 14.271301 16.654201
O 4.713965 -3.498396 2.410780
H 5.625528 -3.474468 2.701836
H 4.517696 -2.595177 2.161974
O 0.037077 4.358093 -8.393877
H -0.737723 3.829039 -8.583662
H -0.118120 5.183987 -8.852183
O -7.754225 0.533240 15.722306
H -7.049686 1.173999 15.818663
H -7.833203 0.131465 16.587506
O 8.709072 15.357391 10.020193
H 8.590791 15.824970 10.847002
H 9.425667 15.818450 9.584134
O 23.101194 -1.046448 5.987922
H 23.149880 -1.892739 6.432504
H 22.246257 -0.694197 6.235378
O 18.353446 15.946395 7.036627
H 17.751967 15.977868 7.780578
H 18.101338 16.692423 6.492461
O 15.569525 22.794852 7.891051
H 16.476810 22.989303 8.126114
H 15.556296 22.831385 6.934640
O 13.898712 9.627335 15.026813
H 14.755232 9.495868 14.620216
H 13.585318 10.455712 14.663760
O 7.019924 14.499468 18.327127
H 7.443871 14.503067 19.185316
H 6.085291 14.571299 18.520862
O 20.861748 8.800923 1.938333
H 21.700402 8.815106 2.399516
H 20.495721 9.674119 2.078994
O 0.470467 17.866149 0.661589
H -0.049281 18.278258 1.351704
H 0.140163 18.251330 -0.150055
O 7.591653 -3.344183 17.797592
H 7.514795 -2.407717 17.980228
H 8.510473 -3.548091 17.972012
O 9.619664 10.142399 9.940815
H 10.370418 10.124596 10.534350
H 9.111745 10.904504 10.219106
O -3.585712 15.551640 17.911151
H -2.923843 16.215568 18.104440
H -3.891656 15.260557 18.770162
O 10.861433 4.573944 5.645856
H 10.895143 5.282466 5.003133
H 10.590845 5.000264 6.459038
O 12.832707 10.209504 6.172752
H 13.263234 11.057042 6.284815
H 11.911119 10.381005 6.366388
O 5.431803 14.143099 21.964464
H 4.842258 14.896737 21.938035
H 4.993729 13.477020 21.434689
O -4.931058 6.619830 16.763514
H -5.486830 5.924525 17.115509
H -5.457127 7.414759 16.850529
O -1.553341 9.831727 -5.800692
H -1.805783 10.147180 -6.668445
H -0.851385 9.203034 -5.968725
O 18.027036 3.365067 1.044902
H 17.125601 3.173341 0.786274
H 18.315854 4.037515 0.427951
O 10.080958 17.614436 13.668049
H 10.414983 18.448203 13.337154
H 9.862365 17.789734 14.583319
O 5.776012 -7.609523 6.698656
H 6.181157 -8.476485 6.677062
H 5.141426 -7.623263 5.982175
O 8.176071 8.859703 5.448388
H 8.209045 9.757037 5.779955
H 7.335462 8.520839 5.756250
O 8.779406 12.682263 -3.974540
H 8.947024 12.737527 -3.033752
H 8.933997 13.569651 -4.298384
O 11.767552 25.386893 11.442780
H 12.362943 25.084438 10.757023
H 11.889555 24.763352 12.158702
O 12.889522 -4.988281 2.371289
H 13.164787 -5.205579 1.480647
H 13.487318 -4.292282 2.644158
O 1.206538 9.601756 -4.159990
H 0.698895 8.836250 -3.890673
H 0.812734 10.331310 -3.681554
O 7.873682 16.517139 12.472459
H 8.611186 17.010566 12.831416
H 7.879069 15.691382 12.956534
O 4.712671 2.827383 4.494473
H 4.053476 3.267639 5.031006
H 5.421837 2.624136 5.104396
O 10.476287 6.322806 13.962044
H 10.414640 6.378298 14.915643
H 9.581577 6.468869 13.654811
O -0.348409 0.054205 11.331762
H -0.879271 -0.716365 11.533352
H 0.030340 -0.133297 10.472911
O 16.852069 -0.761589 5.490739
H 17.445901 -1.484336 5.287684
H 17.367562 -0.176030 6.045373
O 16.054357 3.834318 11.516653
H 16.973003 3.974285 11.287021
H 15.600321 3.792310 10.675037
O 3.558341 -7.570853 5.385426
H 3.413182 -6.625353 5.350917
H 2.678908 -7.947871 5.411591
O 4.806108 6.655140 -2.850806
H 4.604181 7.503041 -3.246435
H 4.098746 6.508811 -2.222746
O 4.462552 0.830279 10.629035
H 4.721826 -0.018230 10.988257
H 4.597102 1.446822 11.348759
O 5.280900 2.742784 -2.740134
H 5.198156 2.257856 -1.919019
H 6.197074 2.630766 -2.993727
O -0.900360 -6.993115 12.160633
H -0.678516 -7.549386 12.907345
H -1.521765 -7.512660 11.650572
O 8.862950 4.330049 2.592473
H 8.940668 4.562693 3.517713
H 7.943021 4.089776 2.481883
O 13.004347 21.339747 10.719663
H 13.773409 21.004981 10.258460
H 12.323330 21.385939 10.048609
O 17.286007 -7.404418 1.362419
H 17.703624 -6.583086 1.621730
H 16.463009 -7.136558 0.953571
O 6.764486 2.429878 6.279698
H 6.430139 2.107548 7.116685
H 7.674129 2.133001 6.254283
O 2.498275 1.398378 2.969328
H 2.575468 2.029625 2.253926
H 3.082761 1.733543 3.649234
O 1.037741 6.902037 4.881214
H 0.308724 7.372039 4.476413
H 1.277367 6.232828 4.240144
O 0.858174 0.262082 -0.956306
H 0.597681 1.139447 -0.675938
H 0.358322 0.108023 -1.757958
O -9.507212 6.261719 16.054721
H -8.656489 6.178320 15.623970
H -9.519677 7.158263 16.389812
O -2.068505 7.318820 -8.815780
H -1.963686 8.222361 -8.517688
H -2.634321 6.913440 -8.158702
O -0.489873 6.511301 14.519930
H -1.138104 6.465804 15.222752
H -0.568352 5.672041 14.066370
O 6.387843 16.588512 8.685808
H 5.583887 16.312823 9.126128
H 7.072262 16.041489 9.071252
O 3.756922 4.509079 11.057633
H 4.186941 5.287846 11.410958
H 4.214882 3.775261 11.467530
O 16.544679 9.580942 -0.862095
H 17.316230 10.050192 -0.544692
H 16.603243 9.640115 -1.815668
O -1.186539 7.792553 3.744046
H -1.530327 8.645115 3.477254
H -1.673877 7.575276 4.538731
O -4.657773 11.355554 7.587083
H -4.831887 11.080783 8.487314
H -4.213245 12.198678 7.675226
O -3.650074 12.172865 4.698524
H -4.147620 11.812662 3.964403
H -3.023456 11.485333 4.924094
O 9.592722 11.121909 -0.152155
H 10.206216 10.393452 -0.248110
H 8.752099 10.767462 -0.441900
O 5.882907 -4.115597 11.976330
H 6.306076 -4.137637 11.118033
H 5.576326 -3.213638 12.069656
O 13.352812 1.790485 4.097374
H 13.832724 0.962407 4.111639
H 13.898891 2.375323 3.572023
O 15.036462 20.491086 9.159902
H 14.917708 19.983927 8.356833
H 15.339217 21.348162 8.859913
O 14.269989 -2.602510 21.847184
H 15.076761 -3.020223 22.148625
H 14.542789 -1.729605 21.564609
O 1.487175 11.498977 -6.974801
H 1.406948 10.842078 -6.283223
H 1.838212 12.271727 -6.532239
O 2.559750 13.394409 -5.007909
H 2.270448 14.299115 -4.889403
H 2.602447 13.037923 -4.120595
O 12.868902 6.112819 1.457441
H 11.964434 6.405423 1.569480
H 13.374086 6.658568 2.060085
O 11.123857 8.970463 -0.556988
H 12.064920 8.880894 -0.406622
H 10.884439 8.187426 -1.052735
Cl 10.694008 6.390274 8.197908
