335
Lattice="15.043892 0.0 0.0 0.0 15.043892 0.0 0.0 0.0 15.043892" Properties=species:S:1:pos:R:3 pbc="T T T" ion=h3o T=300.0 t_ps=4.0
O 4.967587 5.761552 11.796616
H 5.014623 4.794660 11.949285
H 4.299855 6.125497 11.178491
H 5.865268 6.122704 11.641247
O 12.882906 2.410139 13.419607
H 12.971201 1.753857 14.110787
H 13.439392 2.088175 12.710457
O 14.215570 16.436648 11.302106
H 13.818033 15.569818 11.384583
H 14.104789 16.664636 10.379078
O -1.005448 11.334774 7.892953
H -1.297979 10.423789 7.865310
H -1.814357 11.845941 7.917574
O 5.127015 18.165048 12.410955
H 4.670512 17.790417 13.164274
H 4.879853 17.602917 11.676687
O 23.987042 0.079139 1.771031
H 23.034232 0.037928 1.689258
H 24.165835 -0.237451 2.656488
O 5.694046 9.902141 0.425946
H 6.339031 9.622049 -0.223496
H 6.206424 10.364883 1.088948
O 8.580513 -4.766396 6.947049
H 7.803121 -4.720439 6.390469
H 9.313235 -4.810522 6.332717
O 24.078082 1.029487 -4.565372
H 24.163144 1.950003 -4.813662
H 23.383978 1.021851 -3.906287
O 2.409981 6.521746 -0.950913
H 2.860878 6.333404 -0.127839
H 1.673187 5.910899 -0.966155
O 17.019841 8.321725 9.182428
H 16.661713 9.154826 9.488890
H 17.028390 8.400567 8.228519
O 7.346452 5.348039 15.030449
H 7.563758 4.737350 15.734769
H 8.184627 5.534697 14.607537
O 10.923501 1.097203 5.665978
H 11.086064 0.973389 6.601112
H 10.583178 1.989244 5.597597
O 7.375649 2.162855 6.343055
H 7.051370 2.543027 7.159477
H 8.321158 2.309756 6.368833
O 7.206043 14.067199 -9.218725
H 6.728119 13.447116 -8.667982
H 7.258482 14.864869 -8.692222
O 14.683616 5.268068 5.954868
H 14.814708 5.572186 5.056781
H 14.871698 4.330158 5.920502
O 2.155253 15.597586 -1.649725
H 2.673872 15.307017 -2.399949
H 1.828323 16.460605 -1.903786
O 4.036967 -0.935577 11.666149
H 3.774121 -1.731521 11.203961
H 4.547102 -1.249083 12.412947
O 13.430811 2.073930 8.884090
H 13.125564 2.962131 9.068898
H 12.652387 1.612798 8.571607
O 19.416429 16.589114 -0.201552
H 18.731457 16.065578 -0.617431
H 18.941102 17.225236 0.332905
O 7.902541 20.697089 5.749029
H 7.120016 20.823808 6.285526
H 8.224448 21.582772 5.581184
O 10.293443 18.923545 5.575771
H 9.515079 19.433915 5.799163
H 11.000082 19.332410 6.075493
O 2.234899 -5.893529 13.237701
H 3.069264 -5.579037 12.889619
H 2.371466 -6.830412 13.378527
O 9.571403 9.427240 10.154115
H 9.118288 8.613655 10.375471
H 8.943797 10.117450 10.368479
O 4.697546 5.722595 16.134534
H 5.481484 5.479818 15.641856
H 4.260947 4.890360 16.316188
O 3.643964 11.767395 -4.426892
H 4.260353 11.325981 -5.011230
H 2.782515 11.575245 -4.797319
O 20.701891 10.745682 9.062389
H 21.308547 11.029493 9.746240
H 21.000412 9.867444 8.826136
O -1.752005 15.296113 15.185897
H -1.359069 15.833516 15.873670
H -1.046658 14.713637 14.904047
O 23.265714 8.099368 4.753834
H 22.499843 8.507608 5.157582
H 22.916257 7.630629 3.995945
O 18.214550 10.492304 4.570881
H 17.313052 10.459907 4.250753
H 18.331459 9.667702 5.042683
O 9.553028 13.913641 19.644507
H 9.924537 14.721270 19.999398
H 8.667512 13.877625 20.006166
O -1.411451 15.928047 20.137656
H -0.950956 15.095035 20.238982
H -2.319070 15.730157 20.368520
O 7.726599 11.293685 11.231373
H 7.733937 11.524956 12.160185
H 8.332016 11.913735 10.824877
O -1.076357 -8.582391 16.777253
H -1.413992 -9.166227 16.098011
H -1.826390 -8.421172 17.349696
O 6.935863 8.299652 8.362008
H 7.581154 8.928033 8.038018
H 7.309360 7.972471 9.180350
O 22.118325 1.972876 18.765316
H 22.127340 2.012115 19.721669
H 21.426066 1.345362 18.557388
O 11.034638 0.673320 8.206626
H 11.496621 -0.147438 8.377388
H 10.283965 0.654169 8.800222
O 4.708549 15.489458 9.187035
H 4.467367 16.402694 9.342156
H 4.815948 15.117579 10.062480
O 20.513744 -0.189800 3.826316
H 21.125672 -0.264156 4.558605
H 20.357792 -1.093252 3.551205
O 13.058728 13.944855 11.187234
H 13.679561 13.232223 11.338738
H 12.877041 13.909266 10.248110
O 17.792399 14.423360 5.183200
H 18.649841 14.312553 4.772410
H 17.842337 13.905132 5.986429
O 2.977514 2.210739 6.642425
H 2.063847 1.967605 6.791861
H 3.416541 1.383671 6.443814
O 0.640801 19.524649 14.316711
H -0.268318 19.797753 14.193625
H 0.617281 18.950113 15.081947
O 13.135811 9.888610 4.166976
H 12.353639 9.839409 4.716537
H 13.052080 10.722455 3.704458
O -0.274726 6.203108 10.391966
H 0.676466 6.227407 10.287680
H -0.455819 6.832871 11.089703
O 0.171982 -2.256699 17.123019
H -0.704858 -2.594463 16.940543
H 0.470930 -1.900637 16.286310
O 14.070011 13.210964 5.137971
H 14.651763 12.940764 5.848456
H 14.325509 12.661960 4.396657
O 8.214015 11.885962 13.983015
H 8.191338 11.987155 14.934581
H 9.094562 11.559818 13.797275
O 4.436550 -2.637831 0.788912
H 4.700737 -1.938874 0.190668
H 4.902702 -3.412256 0.473952
O 2.543884 6.043333 -9.183121
H 2.576941 5.175128 -8.781426
H 1.911197 5.954072 -9.895842
O -4.821996 3.310640 13.231548
H -4.020356 2.801111 13.113288
H -5.370937 2.766733 13.796402
O 8.930090 12.335321 8.975231
H 8.688109 11.647463 8.355127
H 8.286527 13.028415 8.827989
O 20.530397 6.162287 7.134965
H 19.999640 6.638467 6.496388
H 21.055750 6.838684 7.562427
O 15.268668 17.187257 6.637281
H 14.934301 16.620607 5.942056
H 14.541209 17.264535 7.254584
O 12.141290 20.677767 6.970229
H 11.846532 21.587165 6.921810
H 12.917585 20.647011 6.411076
O 13.527691 8.726009 9.352760
H 13.838723 7.854180 9.596493
H 13.908918 9.309034 10.009251
O 6.227743 15.210326 16.346899
H 5.620887 15.506784 15.668614
H 5.708449 15.212183 17.150990
O 21.111652 10.016797 5.574270
H 20.806163 10.739070 5.025425
H 20.368198 9.415258 5.615005
O -1.503753 18.079931 3.094699
H -1.810004 17.300901 3.558978
H -2.304883 18.527881 2.823104
O 6.994671 1.042861 12.561134
H 6.384748 1.768627 12.428889
H 7.515809 1.302728 13.320816
O 12.946491 5.463522 14.528606
H 12.504096 6.085301 13.950758
H 12.523491 4.624292 14.346957
O -2.747941 11.975622 17.017186
H -2.686455 11.086706 16.667501
H -3.344949 12.427376 16.420755
O 10.900157 4.105177 2.906607
H 11.176366 5.012495 2.777320
H 10.928376 3.978542 3.854973
O 15.950601 8.485845 6.292236
H 16.052547 7.537698 6.209438
H 15.929382 8.804637 5.389932
O 0.300802 13.469740 14.277299
H 0.230201 12.541512 14.054497
H 1.070496 13.774083 13.796490
O -7.283307 8.832636 13.508626
H -6.571095 8.673497 14.128029
H -7.036416 8.338471 12.726912
O 3.186449 9.265338 1.224350
H 4.063194 9.454829 0.890220
H 2.595369 9.590494 0.545284
O 18.501998 7.432881 3.066600
H 19.018936 6.825506 2.537352
H 18.371169 8.193318 2.500162
O 11.760989 7.697195 13.214247
H 11.575482 8.548563 12.818026
H 11.063289 7.125922 12.893165
O 5.503136 -2.460186 7.323108
H 4.574821 -2.227793 7.301757
H 5.539256 -3.255564 7.854428
O 7.585990 11.585052 1.761500
H 8.305938 11.077142 2.135579
H 7.312996 12.170569 2.467811
O 11.266533 8.334312 -7.046939
H 10.693157 8.682018 -6.363878
H 12.108541 8.204776 -6.610503
O 9.733362 19.024891 9.922778
H 10.686127 19.002117 10.011960
H 9.488599 19.911372 10.188246
O 11.172478 -5.416160 5.720410
H 11.276136 -4.464676 5.733245
H 11.368133 -5.690987 6.616190
O 6.859596 7.326079 2.411197
H 6.009117 6.953246 2.179004
H 7.224886 7.627084 1.579216
O 11.110660 9.902065 12.188726
H 10.450083 9.826193 11.500167
H 11.255242 10.843883 12.279859
O 2.993506 3.519209 4.212973
H 2.852092 2.981131 4.991886
H 3.820452 3.971249 4.380462
O 5.799739 -1.455208 13.512987
H 6.573727 -2.017316 13.547776
H 6.149358 -0.572809 13.389008
O 1.928205 0.137789 17.497576
H 1.405352 -0.619409 17.233932
H 2.081964 0.009106 18.433541
O 18.018278 -1.065271 7.801570
H 17.492807 -1.635925 8.362343
H 18.685273 -0.703507 8.385074
O 12.627947 4.554581 9.466633
H 13.249685 5.116204 9.929507
H 12.513402 4.974844 8.614289
O 4.907254 -2.782080 3.439447
H 4.091051 -3.166790 3.758888
H 4.815328 -2.781065 2.486672
O 4.938784 9.664046 -2.708434
H 5.079607 10.601911 -2.838090
H 5.672377 9.384685 -2.160682
O 1.519634 3.049499 12.253815
H 0.678449 2.892526 11.824864
H 1.300038 3.560034 13.033150
O 2.790876 5.928069 -4.777877
H 3.005067 5.314399 -5.480560
H 2.661227 6.765922 -5.222202
O -0.748647 -6.601873 12.113383
H -1.514120 -6.815114 12.647060
H -0.011415 -6.647398 12.722193
O 8.420461 3.580343 1.920442
H 9.320352 3.660475 2.236681
H 7.947818 3.167976 2.643487
O 6.745233 18.927305 8.783189
H 7.411643 19.261039 9.383814
H 6.380245 19.710164 8.370700
O 15.039679 -5.935703 1.012381
H 15.390703 -5.790782 1.891023
H 14.735542 -6.843247 1.022129
O 3.686631 4.504149 8.292193
H 4.369351 5.034497 7.881271
H 3.683023 3.688067 7.791964
O 5.587578 4.959488 3.991209
H 5.936396 4.150499 3.616917
H 6.307808 5.312210 4.513787
O 1.083912 11.112801 9.580546
H 0.676299 11.216680 10.440368
H 0.347798 11.053714 8.971550
O 3.084471 3.322154 1.384415
H 2.229490 2.896455 1.321020
H 3.290083 3.309615 2.319187
O -5.647254 9.991452 17.896285
H -6.228525 9.701715 18.599426
H -5.120235 10.685957 18.291439
O -3.373798 12.874236 -6.760207
H -4.125889 12.413888 -6.387824
H -3.388042 12.644865 -7.689410
O 0.601040 2.203153 16.536694
H -0.028711 2.571250 17.156492
H 0.881753 1.381379 16.939335
O 3.484123 17.727519 10.218422
H 3.428275 18.461618 9.606692
H 2.783607 17.888143 10.850648
O 4.222251 7.994939 5.473105
H 4.046715 7.812087 4.550075
H 3.484619 7.602360 5.940024
O 15.994249 6.481007 3.599832
H 15.597234 6.258457 2.757762
H 16.889804 6.739469 3.382091
O 0.063571 10.593696 -1.183555
H 0.803091 10.187850 -1.635918
H -0.012754 10.106325 -0.363265
O -1.016885 11.203679 11.362641
H -0.966312 10.893132 12.266652
H -1.724382 10.690817 10.971935
O -4.145126 13.621116 0.232138
H -4.725252 14.062206 0.852722
H -3.358100 14.165510 0.210757
O 11.527958 6.795099 2.759262
H 10.832754 7.118745 2.186396
H 11.231132 7.012048 3.643038
O 7.339246 -0.371223 8.705415
H 7.686134 0.019998 9.507192
H 6.445834 -0.033776 8.640786
O 8.309684 2.005580 -0.178681
H 8.751054 1.290035 0.278945
H 8.439150 2.767587 0.385956
O 11.476553 12.305626 5.566012
H 12.316838 12.648126 5.261304
H 10.835857 12.960843 5.289551
O 15.720672 -5.736277 18.838419
H 15.934132 -6.661037 18.713976
H 14.774855 -5.725949 18.985238
O -2.588264 9.711516 0.667164
H -2.443631 10.096375 -0.197241
H -1.722302 9.412734 0.944781
O -4.128994 12.482070 -2.143046
H -3.535889 13.061451 -2.621352
H -4.296941 12.938240 -1.318465
O 9.524689 6.031498 -1.806165
H 9.828481 5.125213 -1.857048
H 9.074977 6.180915 -2.637830
O 9.813741 8.149856 0.699794
H 9.704597 8.836819 1.357365
H 10.658917 8.339622 0.292488
Cl 7.670655 6.743536 11.002383
