335
Lattice="15.178846 0.0 0.0 0.0 15.178846 0.0 0.0 0.0 15.178846" Properties=species:S:1:pos:R:3 pbc="T T T" ion=h3o T=300.0 t_ps=32.0
O 8.475517 6.576653 8.380092
H 8.757705 7.142160 9.129075
H 7.761790 5.964252 8.655707
H 9.204958 6.181014 7.858758
O 14.953415 4.020556 17.626174
H 14.229900 4.607387 17.406201
H 15.731222 4.577774 17.598687
O 12.270086 13.555167 10.364735
H 12.982318 13.343638 9.761234
H 12.223005 14.511156 10.354733
O 3.379563 14.165062 9.844310
H 3.745054 14.552835 10.639471
H 2.453012 14.404492 9.864540
O 6.614435 23.393578 15.142415
H 6.279195 22.596135 14.732620
H 6.549717 24.060250 14.458608
O 22.987548 -4.908551 10.970884
H 22.400920 -4.898108 10.214584
H 23.093454 -3.986537 11.205205
O 7.618448 11.431410 0.071906
H 7.119295 10.962388 0.740559
H 7.155383 11.248508 -0.745620
O 10.063745 -5.751471 4.999260
H 10.477226 -5.016958 4.545656
H 9.136254 -5.518066 5.038180
O 29.340647 2.700945 -5.634559
H 28.750246 3.451571 -5.699511
H 29.760863 2.799362 -4.780179
O -1.509263 14.106320 -2.560518
H -2.112279 13.965276 -3.290388
H -1.852383 14.878966 -2.111609
O 18.332124 9.014691 7.836806
H 18.630389 9.786623 8.317837
H 19.091021 8.746801 7.318596
O 4.460340 -2.761549 15.102415
H 4.854147 -1.944977 15.409592
H 3.667146 -2.487206 14.642186
O 8.457697 2.580222 4.028196
H 8.825843 2.145739 3.258830
H 9.090986 3.265067 4.243055
O 7.280574 5.966292 10.997803
H 7.335416 6.471154 11.809183
H 7.290264 5.052499 11.282617
O 12.088695 16.050972 -5.210122
H 11.432284 16.513376 -5.731217
H 12.814441 16.670410 -5.133825
O 15.482461 -0.207869 4.340481
H 16.166990 -0.426343 3.708088
H 15.924323 -0.229032 5.189329
O -1.012468 11.719642 -1.135137
H -0.811761 12.643560 -1.284550
H -1.658797 11.502757 -1.807037
O 1.606227 -4.899923 14.091722
H 1.544850 -4.166022 14.703159
H 0.739318 -4.949888 13.688975
O 15.408958 2.375428 11.994263
H 16.029107 3.075549 12.197925
H 15.137909 2.038944 12.848396
O 20.715062 14.881177 0.258856
H 20.369584 15.671723 0.673480
H 21.653129 15.048360 0.167690
O 4.542068 17.510566 0.949956
H 4.990425 18.354047 1.011174
H 4.466830 17.212427 1.856424
O 10.342669 17.146105 8.048470
H 10.551151 18.050396 7.813898
H 10.231287 16.699983 7.208946
O 1.906407 -9.161290 17.712406
H 1.485323 -8.673941 17.004302
H 2.826566 -8.901250 17.668601
O 7.689371 13.528812 7.671657
H 8.401199 14.057056 7.310421
H 8.128280 12.786175 8.086483
O 6.214526 10.888932 8.861377
H 5.363850 11.279778 8.661825
H 6.572102 10.643752 8.007997
O 5.014449 4.966772 -9.715136
H 4.503063 4.291252 -10.160546
H 5.633253 4.479640 -9.171063
O 18.850821 7.544702 10.201318
H 19.042271 6.631363 9.988264
H 18.781707 7.979940 9.351599
O -1.102907 12.735248 18.798798
H -1.913589 13.244110 18.808104
H -0.501164 13.232338 19.352910
O 18.683187 7.852805 -2.093217
H 18.696543 7.884852 -3.049787
H 18.175358 8.621801 -1.834399
O 18.310778 11.388203 -3.294437
H 17.688356 10.950157 -2.713974
H 18.314471 12.298700 -2.999117
O 9.849051 15.436199 17.996033
H 9.625772 14.750182 17.366939
H 10.468798 15.019971 18.595114
O 2.631665 18.089559 20.961335
H 2.959643 17.519924 21.657164
H 1.684852 18.116325 21.099394
O 10.471741 12.611075 13.017010
H 10.317775 12.178514 13.856901
H 10.901680 13.434891 13.246600
O -5.213477 -12.074040 15.203764
H -4.679863 -12.569878 15.824757
H -5.788396 -11.541319 15.753226
O 1.447571 10.949159 6.146861
H 1.658781 10.020446 6.051385
H 1.071074 11.020710 7.023994
O 19.566850 -0.971918 18.219264
H 19.399264 -0.292543 18.872407
H 19.462330 -1.794897 18.696770
O 6.785606 4.417454 8.399796
H 5.977028 4.548894 8.894929
H 6.813596 3.475564 8.231596
O 7.115671 15.403805 12.423460
H 7.686196 15.649022 13.151884
H 7.422017 14.535972 12.160307
O 18.509884 -2.479057 5.536066
H 18.047990 -3.241046 5.885722
H 19.152655 -2.257964 6.210006
O 10.829240 16.070617 12.533014
H 10.659925 16.982723 12.768866
H 11.132067 16.109563 11.625814
O 13.511310 18.770971 6.264010
H 12.724778 19.291106 6.428508
H 13.267506 18.188050 5.544987
O 4.340223 4.886510 9.610453
H 4.010889 4.108458 10.060348
H 3.715585 5.035733 8.900671
O -3.418546 20.518771 11.767721
H -2.909478 20.526374 10.957150
H -3.626787 21.439024 11.928969
O 10.490008 11.226201 2.930096
H 11.360258 10.829612 2.889928
H 10.290438 11.459337 2.023426
O -0.722743 5.709042 12.726986
H -1.432183 5.072065 12.642210
H -0.212520 5.608362 11.923389
O -0.240465 0.441649 23.555773
H 0.240620 0.581060 22.740081
H -0.547462 1.313269 23.805300
O 15.930435 11.896380 1.484408
H 14.992439 12.001917 1.643332
H 16.295177 12.772409 1.609981
O 13.848784 16.703055 14.476413
H 13.036020 17.045938 14.848001
H 14.520207 17.327927 14.750199
O 4.334901 -4.632663 1.979931
H 3.590623 -4.453524 2.554553
H 4.103502 -4.215109 1.150271
O 0.577631 3.721415 -7.590993
H -0.157807 3.826672 -8.194552
H 0.180300 3.397091 -6.782801
O -6.374447 0.553487 14.490561
H -6.202573 1.442221 14.801755
H -5.652917 0.365668 13.890270
O 7.594011 16.853430 8.279937
H 8.546071 16.952294 8.273632
H 7.423392 16.217234 8.974470
O 24.719261 0.113325 6.013735
H 25.431240 -0.460649 5.731120
H 24.124235 0.144317 5.264592
O 18.789727 16.711449 8.022787
H 18.839745 16.759080 8.977492
H 19.701877 16.732309 7.733343
O 15.961071 22.598476 7.946571
H 16.728354 23.170746 7.950613
H 16.020227 22.123606 7.117577
O 13.265645 10.130669 15.933440
H 13.672968 10.772088 15.351287
H 12.852399 9.499883 15.343890
O 7.462017 13.284969 17.427938
H 7.432185 12.880848 16.560743
H 6.595478 13.675680 17.540568
O 19.703355 7.327272 2.324339
H 19.262416 7.753108 3.059504
H 20.098952 8.046788 1.832371
O 0.617766 18.359817 0.005991
H 0.334605 18.678704 0.862941
H 1.221919 19.030682 -0.312083
O 6.865848 -4.497691 18.512222
H 5.966978 -4.605084 18.201205
H 7.077407 -3.583398 18.323690
O 9.407708 8.017678 10.405527
H 10.216725 8.399674 10.065230
H 8.923078 8.761515 10.763400
O -3.394502 16.928808 16.932235
H -2.591317 17.081833 17.429939
H -3.934963 16.388813 17.508897
O 10.122419 4.928414 3.924274
H 10.038503 5.864064 3.740566
H 10.277951 4.882068 4.867616
O 11.757123 12.383825 6.895632
H 12.606015 12.446719 7.333420
H 11.128124 12.266107 7.607485
O 4.955474 13.472857 22.801951
H 4.621273 13.987201 23.536793
H 5.897342 13.643453 22.798293
O -4.965485 7.612472 17.893492
H -5.460931 7.933477 17.140020
H -4.915580 8.363104 18.485348
O -1.712543 8.110380 -6.369771
H -0.881121 7.776376 -6.706536
H -2.308765 8.067796 -7.117392
O 17.517437 0.969889 0.108410
H 16.883611 1.687163 0.112298
H 18.348552 1.382780 0.342931
O 9.838372 18.650018 12.474871
H 10.466268 19.270564 12.104870
H 9.954672 18.726807 13.421872
O 5.397564 -7.359666 6.023900
H 5.600359 -8.279914 5.855821
H 4.597209 -7.195339 5.525241
O 6.855944 10.261452 6.380476
H 6.895705 10.654019 5.508385
H 6.351879 9.456885 6.258730
O 8.288371 12.935057 -3.679121
H 9.002400 12.924617 -3.041716
H 8.715459 12.774463 -4.520571
O 11.416499 25.298095 9.507141
H 12.170859 24.937982 9.040781
H 11.755942 25.526323 10.372544
O 12.841094 -5.149856 3.375391
H 13.051645 -5.283004 2.451177
H 13.363062 -4.390112 3.633403
O -0.213384 10.095220 -3.819562
H -0.874022 10.527199 -3.278099
H -0.689280 9.394561 -4.265467
O 7.219212 18.506335 12.057281
H 8.161984 18.616189 12.181157
H 7.106214 17.570112 11.893115
O 4.379469 1.942404 3.691598
H 3.713946 2.195849 4.331188
H 5.212247 2.102644 4.135486
O 8.900876 6.878286 15.461919
H 8.798338 6.098106 16.006930
H 8.188833 7.456898 15.734747
O 1.143617 -0.593971 11.177815
H 0.505196 -1.299735 11.280520
H 0.615663 0.181320 10.986976
O 17.087932 -0.217548 6.545003
H 17.435715 -1.030196 6.177741
H 17.805342 0.133832 7.072342
O 16.423617 6.693022 10.695909
H 17.267501 7.141536 10.750011
H 16.235417 6.648029 9.758472
O 2.989287 -6.992812 4.490117
H 2.713760 -6.269029 3.927574
H 2.181326 -7.469086 4.681411
O 5.376242 5.950706 -1.176994
H 4.668148 6.577366 -1.325759
H 5.039730 5.122607 -1.519402
O 4.497799 -0.125714 11.939299
H 5.391874 -0.010821 12.261264
H 4.018097 -0.484423 12.685922
O 4.742703 3.512788 -2.171757
H 4.866639 2.696680 -1.687156
H 5.565678 3.638796 -2.644055
O -2.855303 -4.501372 12.105341
H -3.528420 -3.826079 12.189750
H -3.124516 -5.186384 12.717318
O 8.409502 4.601184 1.679029
H 7.456745 4.682487 1.635717
H 8.591351 4.395230 2.595951
O 12.975603 20.502319 9.489514
H 13.495458 21.305831 9.508255
H 12.483659 20.553819 8.670020
O 15.926425 -7.453744 0.799437
H 16.403646 -6.730442 0.392833
H 15.182636 -7.608005 0.217017
O 6.314702 2.323442 5.950550
H 6.720012 1.729254 6.582133
H 7.036165 2.603367 5.387198
O 1.885096 -0.877468 2.137554
H 2.014190 -0.291994 1.391373
H 2.770340 -1.126598 2.403088
O 0.940642 6.540619 4.918886
H 0.043837 6.706096 4.628044
H 1.413274 6.308769 4.119450
O 2.544547 -1.073822 -1.731368
H 2.404764 -0.452432 -1.016829
H 1.984836 -0.755159 -2.439471
O -9.283857 5.133451 16.519113
H -9.391224 5.526348 15.652894
H -9.536869 5.825826 17.129714
O -3.420240 7.942632 -8.729006
H -4.126522 8.462536 -9.112538
H -3.838826 7.120577 -8.473578
O -1.636000 7.201940 14.550260
H -1.900760 6.654984 15.289837
H -1.302466 6.582648 13.901058
O 3.507239 17.284116 10.696797
H 4.117441 16.854826 11.296461
H 2.941023 17.807140 11.264315
O 2.269884 4.372744 12.427395
H 2.146831 5.300415 12.226107
H 3.167453 4.315253 12.754957
O 17.243213 10.414289 3.438058
H 16.662757 10.533296 2.686300
H 16.863641 10.963868 4.123710
O -1.879639 7.527760 4.343254
H -1.825689 8.378818 3.908488
H -2.175031 7.730062 5.230975
O -5.132207 12.542447 9.108690
H -4.792765 11.675193 9.329783
H -4.418959 13.142217 9.327290
O -3.875171 13.436082 4.300496
H -4.474722 12.775771 3.952993
H -3.740484 13.181306 5.213284
O 10.314049 11.532006 0.298868
H 10.638035 10.663293 0.060955
H 9.363188 11.465881 0.210995
O 6.200042 -4.914938 13.151904
H 6.533998 -5.095453 12.273201
H 5.305209 -4.606203 13.009818
O 13.774459 1.906942 3.857862
H 14.461047 1.256591 4.005755
H 14.232785 2.658564 3.482053
O 17.960914 20.511066 7.560087
H 17.218988 19.945654 7.774764
H 18.393533 20.071692 6.827951
O 14.031770 -2.213451 23.811144
H 14.836113 -2.706680 23.972358
H 14.331820 -1.364874 23.485385
O 0.847810 11.140397 -6.176640
H 0.497001 10.726179 -5.388232
H 1.757671 11.341373 -5.957567
O 3.426228 11.534601 -6.060365
H 3.679330 12.454813 -5.987013
H 3.505094 11.192298 -5.169949
O 12.797104 6.155610 1.726944
H 11.912658 6.112231 2.090406
H 13.282643 6.705289 2.342034
O 11.399119 8.797015 -1.102641
H 12.095889 8.146987 -1.193233
H 10.667101 8.312560 -0.720955
Cl 10.704296 5.111159 7.084447
