16
acid revpbe0-d3bj/def2-tzvp charge 1 E=-382.5514238336 Eh
O   0.09103276 -0.17607505 -0.09244992
H   1.00680397 -0.29511303 -0.60220461
H  -0.30925843  0.73701947 -0.20057217
H  -0.57057167 -0.89849746 -0.31208237
O   2.22281966 -0.55551247 -1.26506532
H   2.96966732 -0.93943111 -0.74694721
H   2.58907357  0.07516011 -1.88951887
O  -0.85252889  2.22163304 -0.32342232
H  -0.95354920  2.78301592  0.45063123
H  -1.49231153  2.52618937 -0.97293032
O  -1.66728918 -2.00089003 -0.59193434
H  -2.02137738 -2.54391015  0.11826114
H  -1.72196951 -2.52393376 -1.39660372
O   4.19131107 -1.67933674  0.14298967
H   4.65898305 -2.46576032 -0.14973138
H   4.72695445 -1.28498545  0.83592252
