17
base initial guess, charge -1
O   0.00000000  0.00000000  0.00000000
H   0.00000000  0.00000000  0.97000000
O   2.53823966  0.00000000 -0.76147190
H   2.50120814  0.00000000 -1.72576110
H   1.61393729  0.00000000 -0.48418119
O   0.00000000  2.53823966 -0.76147190
H   0.00000000  2.50120814 -1.72576110
H   0.00000000  1.61393729 -0.48418119
O  -2.53823966  0.00000000 -0.76147190
H  -2.50120814  0.00000000 -1.72576110
H  -1.61393729  0.00000000 -0.48418119
O  -0.00000000 -2.53823966 -0.76147190
H  -0.00000000 -2.50120814 -1.72576110
H  -0.00000000 -1.61393729 -0.48418119
O   4.43411810  0.00000000  1.36647193
H   4.59484648 -0.93426247  1.54687431
H   3.79218031  0.00000000  0.64595762
