16
acid initial guess, charge 1
O   0.00000000  0.00000000  0.00000000
H   0.95073965  0.00000000 -0.23768491
H  -0.47536983  0.82336469 -0.23768491
H  -0.47536983 -0.82336469 -0.23768491
O   2.47386338  0.00000000 -0.61846584
H   3.06456947 -0.76301544 -0.60852880
H   3.06456947  0.76301544 -0.60852880
O  -1.23693169  2.14242853 -0.61846584
H  -0.87149398  3.03550274 -0.60852880
H  -2.19307549  2.27248730 -0.60852880
O  -1.23693169 -2.14242853 -0.61846584
H  -2.19307549 -2.27248730 -0.60852880
H  -0.87149398 -3.03550274 -0.60852880
O   4.15722273 -2.17439633 -0.59014785
H   3.75082674 -2.88938753 -0.08531632
H   4.95754576 -1.95533643 -0.09748082
