16
acid snapshot from running optimization
O   0.10298879 -0.15318957 -0.08464166
H   1.01744484 -0.27293878 -0.59730459
H  -0.30675981  0.75488777 -0.20690081
H  -0.55189235 -0.88331440 -0.29784560
O   2.22751308 -0.53958408 -1.26887430
H   2.97071461 -0.93868254 -0.75704956
H   2.59908122  0.09822670 -1.88275923
O  -0.86982027  2.22924015 -0.34594665
H  -0.94780441  2.79169844  0.43080859
H  -1.57542227  2.48751504 -0.94679072
O  -1.63705507 -1.99755206 -0.59224457
H  -2.02049434 -2.52746060  0.11253052
H  -1.65357779 -2.53808397 -1.38701877
O   4.17674917 -1.70169886  0.13721480
H   4.61319202 -2.51264887 -0.13637641
H   4.72290200 -1.31646658  0.82711494
