17
base snapshot from running optimization
O   0.13916047  0.03535629  0.38920166
H   0.06238005 -0.06233525  1.33910184
O   2.38082798 -0.53365208 -0.85679713
H   2.17833005 -0.06183311 -1.66839643
H   1.58122061 -0.32981563 -0.27892880
O   0.45422583  2.56098990 -0.33326918
H  -0.14663932  2.53380202 -1.08292757
H   0.36359086  1.63325985  0.03776561
O  -1.82222416  0.50455708 -1.47290476
H  -1.63728346 -0.34248621 -1.89170587
H  -1.25532408  0.43201608 -0.67193110
O  -0.30678635 -2.19019819 -1.10325365
H   0.60819181 -2.24776311 -1.39320271
H  -0.24411904 -1.45191924 -0.44521122
O   3.28259825  2.33556334 -0.77265787
H   2.34162352  2.56221948 -0.66082878
H   3.28562398  1.38737318 -0.58734996
