17
base revpbe0-d3bj/def2-tzvp charge -1 E=-458.0636185738 Eh
O  -0.03210873 -0.11597650  0.49789232
H  -0.07900901 -0.14267696  1.45368797
O   2.20616576 -0.22102883 -0.82756439
H   2.05878442  0.63566458 -1.24414186
H   1.41221042 -0.26143294 -0.20375111
O   0.34968509  2.19310171 -0.89706324
H  -0.39927432  1.98346396 -1.46613693
H   0.25490627  1.47795332 -0.22089016
O  -2.06466267  0.30401295 -1.27237450
H  -1.80264828 -0.49532051 -1.74284202
H  -1.47806142  0.23439556 -0.48158980
O  -0.26169215 -2.18870195 -1.23133440
H   0.58713837 -1.96981308 -1.62785815
H  -0.26702978 -1.56736403 -0.46100754
O   4.48334590 -0.41857113  0.73512393
H   4.12808795 -0.00306042  1.52274439
H   3.72487107 -0.38204445  0.11144675
