17
base def2-svp stage, E=-457.4833922481 Eh, fmax=0.0281 eV/A
O  -0.10232301 -0.02175187  0.63076108
H  -0.17599409  0.02134293  1.58893028
O   2.04046747 -0.18061942 -0.79769453
H   1.74712896  0.63980676 -1.23873420
H   1.32609602 -0.19700076 -0.07768981
O   0.34952135  2.03412443 -1.09659065
H  -0.40646445  1.62141888 -1.55647489
H   0.26101694  1.52420749 -0.25519690
O  -1.81199389  0.26814197 -1.38801566
H  -1.38633378 -0.54703984 -1.70932650
H  -1.40775950  0.26353104 -0.48165736
O  -0.12622400 -2.01772232 -1.15273112
H   0.72507792 -1.62753418 -1.41383522
H  -0.25543656 -1.49173305 -0.32256066
O   4.39060435 -0.23078666  0.63273553
H   4.03184696 -0.87199330  1.25470651
H   3.62188170 -0.11797706  0.02776457
